80
Lattice="8.276213082818828 0.0 0.0 0.0 14.84604979401167 0.0 0.0 0.0 22.342484458207366" Properties=species:S:1:pos:R:3 pbc="T T T"
C        6.07312102       5.45321520       7.84604811
C        4.81673947       9.20703049      14.10493374
C        0.74714808       5.99270656      11.00994752
C        6.98147013      10.95333541      11.04610805
H        6.60394169       6.13661521       7.98862372
H        7.95510325      11.08403692      10.81151185
H        5.60827782       2.87812653      13.07325949
H        3.06347510       4.47680538       8.66143077
O        0.98322332      10.07645097      14.04931246
O        7.39034010      11.44424833      16.61476329
O        2.29457346      14.19577133       5.00000000
O        0.60122191       1.84968907       6.88567109
N        5.24351211      12.82131576       9.12938530
N        1.26026899       0.21751500      13.28484504
N        7.29753471       7.50650746       8.11287254
N        1.55066230      14.62889498      12.26983393
S        5.18977858       0.20838288       6.86408268
S        6.11795001       3.83501710       8.22542352
S        3.42466919       8.51254302       9.36037410
S        2.81431279       8.11509657       5.21009489
Pd       2.02559899       8.28356609      10.57316918
Pd       6.64416249       1.74679692       9.00626935
Pd       3.46892585      11.60165103      14.11588960
Pd       0.63530528       6.40037825       9.27257634
Ag       7.33721781       3.26055924      13.69585730
Ag       3.79741691       0.62267042       8.41394609
Ag       5.93132006      13.53799857       7.69288016
Ag       0.17793551       0.58969101       8.47508711
Cu       4.51984947       0.25341683      14.46999981
Cu       4.76290887       2.47563376       8.01704149
Cu       7.90653247      10.64432152       6.04737043
Cu       3.49867767      11.58776102       5.26536338
Zn       6.68614723       1.19874396      13.55727963
Zn       4.73586167      12.66722597      13.10512228
Zn       3.80967594       9.63564940      15.31088025
Zn       3.95406855       3.89150026       7.10420887
Al       2.10641367      11.08701952       7.01206508
Al       5.67461385       5.56061471      11.66208908
Al       2.43126369       7.57350697      15.15117193
Al       5.24085946      11.50259623       7.62993015
Au       0.47907627       7.33903332      11.82641037
Au       5.84213533       9.57818203       7.00404426
Au       0.56088373       1.31599613      17.23750912
Au       1.00431428      13.08481655       8.85963755
P        4.69583641      14.19706609      11.90605644
P        3.78749852       5.17184334       5.80287441
P        5.83876378       9.38616975       9.99441200
P        1.41305796       7.70049363      16.48552549
Hg       0.73294200      13.95105712      14.42949443
Hg       0.50172219       7.84008565       7.85508619
Hg       6.79800489      13.95518779      12.27552284
Hg       4.19489010      11.97224977      10.20941872
Na       6.51780437       7.05296908      15.78722756
Na       6.81210297      11.49671587      12.97832179
Na       2.18358071      11.08041556      12.30866545
Na       7.22057089      12.83424253       5.27031322
Mg       0.17922535       1.76997003      10.46774048
Mg       5.53917992      14.49759480       9.79853418
Mg       5.15376069      13.19112059      16.69597754
Mg       0.31711487       6.09025186      16.65988020
Fe       2.52346366      14.57012645      14.85484785
Fe       0.09223849       9.94222746      11.63772754
Fe       2.29064962       6.13825977      10.51129305
Fe       8.25231811       4.71180331       7.41141714
Mn       2.75756494      12.43397554      15.90233576
Mn       7.27856170       4.94344488       9.21194839
Mn       2.33388040       5.85201907       7.93978140
Mn       7.67983221      12.09089566       9.94254781
Co       0.56193340       1.37441827      15.18511154
Co       7.57523075      14.70260067      10.18900248
Co       6.85800409       5.29035731      13.30924901
Co       3.36751996       3.25088930      17.34248446
La       4.71656663       7.07520248      13.55426902
La       6.13323951       3.10616070      11.20726814
La       2.08794592      10.72179297       9.46038522
La       4.50899435       5.28067842       9.35674053
Cl       7.48494565       0.31426369       6.68590936
Cl       0.17742169       8.97371522       6.55016378
Cl       7.96795093       9.06334093      10.20984855
Cl       8.16824210       3.03252477      15.37660248
220
Lattice="14.306539574896386 0.0 0.0 0.0 17.65055830980551 0.0 0.0 0.0 25.639156468139102" Properties=species:S:1:pos:R:3 pbc="T T T"
C       12.80497828       3.67376383      11.07292313
C        4.88447682       5.16298581      14.86597342
C        1.09157738      10.95625611       6.55859316
C       13.72878629      13.39731638      19.94547106
C        3.16928843       7.99807781       7.49507612
C        6.58053439      17.56611717      16.87950620
C        4.86918682      13.65786773      16.56074322
C        9.78159769       6.33762815       8.41909440
C        5.69355300      14.72123406      16.19016277
C        6.35773010       7.37359993      11.05772394
C        9.40259061       9.44410628      12.33665824
H       10.63627823       5.09637965      12.80270056
H        9.87514817      15.30560282       7.97755067
H        6.96851416      16.67913088       9.62192417
H        7.83782280       8.05268165      10.65540882
H        8.75053289      12.53001734      15.46194268
H       12.73936716       2.03294197      15.68578200
H        5.63569881       8.55933385      16.20730175
H       12.87302629      11.61484271      10.84638089
H       13.75959954      17.35026718      15.60197895
H        4.66133463      16.83486156      15.95562668
H        7.45214242      10.49173120      13.90708701
O        5.08434215      15.50722093       5.75477381
O        8.95161052      10.46604014      18.22459880
O        0.08575661      14.21539039      19.75726046
O        4.98295831       3.41560254      19.47571681
O        7.07134700      13.07952765      16.78232414
O        0.65089012       9.55906857      12.99121769
O        3.18729696       9.07555473      17.74886040
O       13.75819149       3.79627743      11.92804754
O        9.38378666      15.57852394      14.59984200
O       12.37878902       1.29692757       6.51193412
O        8.68690272      10.76718544      14.65116554
N        6.74227365      12.30354809      12.03453611
N        4.45337506      16.34604969      13.33854957
N       10.96239213      14.77355425       8.61031711
N        0.01114100      17.53155908      13.30392499
N        8.54218334       4.77279408      12.53908165
N        6.85369627      17.59416331      14.17331452
N        8.82158166      13.43037460      15.02138366
N        9.52171599       1.64717524      18.64275161
N        7.80578609       9.06496258      19.32648638
N        6.97631394      13.64452479       6.71697169
N        9.91852203       1.78711033      14.73745842
S        2.33097121       0.49578519       9.23865584
S       10.71791521      15.69322272       9.50902770
S        0.01031755      17.51401476       8.48015102
S        7.91999935      10.80682418      11.29398636
S        4.93853421      15.80530359      15.49137158
S        5.33314632      10.85576951      11.12240501
S       11.23768865       5.95364519      19.42547410
S       10.26842700      17.06370840      10.23188254
S        8.43098037       3.38408082      20.06500480
S        8.20119933       8.92839022       5.16472729
S        9.37089465       0.48172729       6.03888669
Pd       1.65149268       5.25695874      12.06016613
Pd      12.58074715       6.29760096       6.60991369
Pd       7.31786128       9.02693209       6.87083806
Pd      10.47201402      10.06696417      14.71592502
Pd       7.75704539      15.05170848      12.04280791
Pd      12.67501940       5.01315205      20.02908129
Pd       0.14448716       5.36060269      13.67166070
Pd      11.11569529      14.71319944       6.91942765
Pd       8.51194099      12.57549335      12.78752211
Pd       1.63984911       6.35500088      15.14501990
Pd      11.30906860      11.50176613       5.85848246
Ag      13.01551838      13.95860291       7.58567516
Ag       3.01886466      16.57345944      18.79524346
Ag       7.18375882      11.12747248       6.79394199
Ag       4.15169217      10.65646383       8.43740203
Ag       4.28497318      11.98558840      15.27461455
Ag       0.51536024       2.74989484      17.20051056
Ag       0.90279569       1.60398844       9.88288024
Ag       9.44120799      15.57531980      19.74119805
Ag       2.02828573       1.98119243      15.92888510
Ag       6.71193625       1.18935214      12.78279638
Ag       0.43106142      14.21717203       9.94626318
Cu       1.07750967      15.84953290      18.01356773
Cu      12.26022331       3.03824870      19.92169727
Cu       8.54919208      16.57387685      13.19677536
Cu       0.54175795      17.45936458       5.50500460
Cu      10.30080626       6.72508413       6.35685487
Cu       2.46169191       1.84085773      11.18201358
Cu      10.51407168      16.58877349      12.44039273
Cu      12.31023077      10.89476658      14.33831906
Cu       1.31658886       0.97532988       7.52171522
Cu      13.01406675      16.46455102       9.07948281
Cu       9.46977114       5.49787813      13.98118680
Zn       1.60730236      12.59100755       7.77808003
Zn       4.03869150       3.42598888      11.33333352
Zn       3.75285732       1.51618250       9.85240841
Zn      13.42470212       6.93504185      20.49772498
Zn       2.12590890      11.19584809      10.59536071
Zn       5.93762644      14.21333304       5.61160736
Zn      10.61346602       3.91556472      11.51964309
Zn       5.73346647       1.24325499      18.66387998
Zn       8.16833973       8.79511581       8.65690088
Zn       5.19328634      17.41292717       7.94891458
Zn      11.14097504      11.86874152      15.56007539
Al       8.86405756      13.70807913      20.03614367
Al      14.28100773      15.97176212      14.09092058
Al       8.42744601       9.18714780      10.45568241
Al      13.37761267       8.36317014       5.95936777
Al       0.01237428       2.75169495      13.35653738
Al       2.74009938      15.25026490      16.79276459
Al       7.20045960      17.60890277      10.47167432
Al       4.62435681       9.73688660      17.45331605
Al       3.46677951       1.37131590      17.40824387
Al       2.88460330       4.08854915       8.60756071
Al       9.13817883       0.29805927       8.09962509
Au       4.53685859       7.25854178      11.20164179
Au       1.53527869       4.15926299      15.30430921
Au       4.15752560       5.37652673      16.22091870
Au      13.04263650       0.04283363      12.44136118
Au       0.28475496       6.73235310      10.48630932
Au      13.54012549       1.87895623      11.84965623
Au       7.39491767      10.03766013      17.72427367
Au       2.78164124       3.09510795      18.92912776
Au       8.47536803      13.94001352       9.30454112
Au       2.39580461      10.17765934      18.78620929
Au       8.48626650      16.46055659       5.82101121
P        1.75430736       1.67927372      18.11930662
P       13.47045202       9.00298496       7.68973589
P        4.42669714      17.58873502      13.79875344
P        5.91351861      14.95865438      11.59309244
P        6.07622823       9.49104975      15.09779247
P        0.99784121      10.33608158      11.58533492
P        7.19620716      11.10432762      12.75725612
P        1.72870091       7.58927381      16.67658705
P        5.34352702       2.19600722      11.82284251
P        9.42410266      12.46053784      18.74622120
P        8.38399498       0.90657440      14.02577814
Hg      11.83575048       4.85730783       9.09685804
Hg       4.51955284       5.75177576      18.19019441
Hg      11.54996737      14.32865920      20.63915647
Hg      10.93565929       4.20195041      13.76383101
Hg       5.96508267      15.73013172       6.98728728
Hg       9.15301020       6.59092527      18.33171183
Hg       5.91660584       8.18904164      12.49245997
Hg       5.25533794      13.82028760      19.50594062
Hg       4.49951666       3.24455417      17.55883551
Hg      13.55459213      12.61984944      10.77052229
Hg       1.26721137      17.49943488      11.32657507
Na       9.43702620       2.60955496       8.32640668
Na       8.98665228       0.26827702      17.28424126
Na       8.77765680       9.06744243      16.26689655
Na      11.19601621      16.86360150       7.72583009
Na       8.11654274       7.66065480      12.81580667
Na      13.63013486       7.18827825      18.38323518
Na       9.73308857       4.50831595       6.73207613
Na      10.34431951       7.73724043      13.95389046
Na       7.20648389       4.41010051       8.16914129
Na       9.85949567      17.34319797      14.79678098
Na       8.73007045       5.64296079      20.46583729
Mg       6.34799408       2.11786033       8.21766600
Mg       5.20640270      15.26364208       9.06000084
Mg      12.31121759       9.54995637      16.32582911
Mg       1.59765275       8.04312984      18.56952350
Mg       2.25763778       4.64502919      17.65710910
Mg       3.69608881       5.36184070      11.96291086
Mg       3.29206644      13.53370024      18.66826089
Mg       2.95704328       8.81885583       8.84681249
Mg      12.85283716       4.99791903      17.96466190
Mg       3.10608143      13.12183545       5.44800234
Mg       2.22413467       8.70406814       5.00000000
Fe       7.52773964       1.90796603      17.92352357
Fe       5.91456911       0.68099085       5.14340755
Fe       7.60254562       6.33654728      10.93528413
Fe      11.38584979      15.90106804      17.08287092
Fe      11.52817086       8.04679411       5.05437669
Fe      10.59151561      11.15521016       9.27272800
Fe      14.07904096      11.56905642      18.45098008
Fe       2.21464481       3.34650349      12.51430416
Fe       3.99044935       2.06615881      20.17813771
Fe       7.47607775       6.88223879       8.94975638
Fe       3.63529410       9.92212277      15.55723502
Mn      10.59809583      14.59261486      14.23745434
Mn      12.31295100      17.36222468      18.11898429
Mn       9.58382919       7.49291996      10.51958091
Mn       1.64041720      17.21398433      13.52612007
Mn      13.05225193      16.10346220      15.54292986
Mn       3.77492480      11.31010975      20.09332326
Mn      13.64349812      14.72704641       5.28986074
Mn       4.14850699       1.58571487       6.46688713
Mn       7.55662848      15.04869918      18.64131621
Mn       4.96179145       9.34472952       6.67821150
Mn      10.77115553       1.73397984       5.47232916
Co      14.00380044       4.63951913      16.24454259
Co       5.24127881      11.93333263      12.95306475
Co       6.00332490       3.64434293      13.23969792
Co      12.49822220       4.41450083      12.57492249
Co       3.13727389       2.13652993       8.11117986
Co       6.98974002       2.03645427      19.88542421
Co       3.39460575       5.12476378      14.46439644
Co       0.38089796      10.74898394      16.07430380
Co       3.30973977       5.69838009       7.12746627
Co       9.51961557       7.91230586      20.50105161
Co       8.43438624       0.63900762      11.90042978
La       6.71233487       4.38219809      18.45289885
La       6.74673022       7.46928806      18.31152306
La       5.51355356       3.72942912       5.97667436
La       5.56710696      11.99560679      17.79235704
La       6.13955704      10.11539743      20.10282456
La       6.49367120       7.09684072      15.31496700
La      11.65531960      12.06139307      18.08318606
La      10.82136066       8.48711996      18.22513061
La       6.64958553      13.13944675      14.62795188
La      12.30322750      17.01199093       5.22164956
La       6.71015599       6.56896974       6.39941359
Cl      12.06944142       9.41682324      13.47186298
Cl      10.80042962       5.05899779       5.15818307
Cl      12.87661929      14.59737670      10.79982745
Cl      10.00613271      12.10329555      14.17488475
Cl       2.02574541      10.99212418      15.79641006
Cl      11.13719153       8.25880034      15.85128785
Cl      13.67776962       0.16387242      14.66342686
Cl       2.77994539       0.41802892      12.47687051
Cl       2.30646976       7.65562838      13.96931834
Cl       0.18311075       5.19868292      19.85002549
Cl       8.64425402      10.26577575       7.96174772
140
Lattice="11.044923060922606 0.0 0.0 0.0 22.777986038006496 0.0 0.0 0.0 22.258203393335094" Properties=species:S:1:pos:R:3 pbc="T T T"
C        5.89712220      11.08856209       5.22334066
C        1.26909358       1.67845229       9.25073187
C        7.90360463       2.51936317      13.48891909
C       10.33207076      17.19918076      14.40051968
C       10.69883456       7.47563814      12.58388066
C        6.29957236      20.92692220      13.63039914
C        3.25947488      14.40354170      16.14201259
H        0.67784971      11.34604761       8.22654893
H        4.55318061      19.22787183       6.08309260
H        4.08680008      17.75513138       8.24509745
H        6.25047616      19.38264986      12.49185027
H        6.02755729       3.04140782      11.99479512
H        3.10494728      18.66108845       7.69489090
H        5.86133442      17.31168999       7.26162487
O        6.72533367       8.66478452      10.34702658
O        9.68107249      18.03534669      11.89671181
O        6.49114534      19.96409909      13.13069892
O        2.10953818       6.00744504      13.78010586
O        6.47876575      20.35657708      14.98610859
O        0.01610478      13.88015003      16.55714662
O        3.11967299       4.14112257       8.19693070
N        0.46151768      20.75609139      14.37735352
N        8.11637728       2.44414743       9.85299629
N        2.07140872      15.69038130       5.94721691
N       10.14493724      15.18077712      16.62525771
N        4.76781316       5.63334075      11.04972237
N        9.68862682      14.94063444       7.40190405
N        8.16329244      11.43320542       6.44582946
S        6.71641282      14.40048896      12.75909308
S        5.39167817      15.95825719      12.83900014
S        9.60161616       9.45032121      11.48978483
S        5.05114595       7.34156954      14.08270201
S        6.27159094      22.62854643      15.43184109
S       10.27438405      12.00009319      16.06622996
S       10.21811777      14.84861900       9.22749657
Pd       2.26758974      16.99234944      15.06472376
Pd       0.69059852       4.24237924       5.22949707
Pd       6.25530228      14.76584415       6.27778709
Pd       4.79405655      10.15301259      13.40168560
Pd       8.77683793      13.60726652      15.16347513
Pd       8.80752676       5.11963893      15.05221482
Pd       2.75129063       3.05391322       6.80335482
Ag       9.61795553       1.81285189      10.37550958
Ag       0.68933125       0.24395441       7.15459738
Ag       5.04372895      18.98240903      12.87959884
Ag       9.93841465      17.42721581      16.10804187
Ag       3.09470280       5.82857249       8.63200514
Ag       9.27344348       0.07214420      12.61673873
Ag       8.62843523      15.79825090      11.78000696
Cu       4.62318239      22.09110985      14.33835548
Cu       5.90953132      17.37208049       5.01628143
Cu       1.43289496       3.84913402      10.44605804
Cu       6.40241468       8.49622432      14.26131910
Cu       2.43930720      21.37575438      15.99458173
Cu       0.63150564       7.67241904       9.07786301
Cu       7.47013924       3.49976266       8.89780051
Zn       6.33802203       4.97520006      12.77642302
Zn       5.69710946      12.50971875       5.00310466
Zn       5.14866473      16.51639410       9.52392626
Zn       2.79062004      10.95446227      10.45167999
Zn       4.93842820       6.19440340      12.70554914
Zn       8.61853367      20.29102061       5.77381289
Zn       9.70672876       6.88225294      15.01994067
Al       3.63267723       7.79308442      12.44197476
Al       2.71519358      14.16969047      10.52196794
Al       0.60611462      19.94901110      15.62678006
Al       2.80630498       0.09076353      14.76304201
Al      10.87038732      12.23715495      10.42774994
Al       8.04210182       5.29498924       8.23604721
Al      10.91738949       0.64048025      14.74497308
Au       3.51598298       3.03580870      10.61388464
Au       6.67263756      19.95504631       9.10962953
Au       6.69097246      15.86395955      14.04128732
Au       4.92742078       4.00956493      16.04589439
Au       9.98705319       5.59234847       5.25742198
Au       5.34241787      19.34255492      10.59797787
Au       1.14617050      21.44276597       5.05377876
P        0.84201417      12.71658958      11.78483169
P        6.59052959      12.30568083       8.07665187
P        7.12219909      19.03823460      13.74468534
P        1.67869876       6.42079153      12.33439547
P       10.17624980      15.12227876      10.95090731
P        7.66339288      19.75739448      11.41142455
P        8.01763350      21.16548636      16.50633855
Hg       7.66708113       2.29593504       5.73351893
Hg       2.31258546      17.83556252      12.31010691
Hg       2.97051425       1.24175657      11.89496771
Hg       4.19688353      20.40411938      15.32995568
Hg       5.47061563       3.19824002      13.29483268
Hg      10.31518765      13.37363631      12.52014337
Hg       5.63226232       6.79357268      17.04691639
Na       9.73327883       1.90416517       6.84315113
Na       2.23246871      13.70072236       8.37117904
Na       6.42073139       4.73510710      10.51946077
Na       4.75677452       0.65204637       8.16112649
Na      10.02188631      15.35264412      13.62316756
Na       1.49120870      17.88042196       6.49413518
Na       5.61991211       2.57969454       9.66684532
Mg       1.41744488       4.64990060       7.25728225
Mg       9.50977961      10.34700722       6.64819648
Mg       2.97890535      20.73474955       6.10599225
Mg       9.84339504       7.95299381       9.82039325
Mg       4.85681996      15.29921185      15.00450532
Mg       8.18455375       9.53922222       5.00000000
Mg       2.24569583       1.74616447      13.91662486
Fe       7.71788887      18.47329561       8.25369202
Fe       0.44710851      19.77234310       6.18070395
Fe      10.49148630       7.48988105       5.00172833
Fe       7.55729362       8.26133752       9.20626471
Fe       6.82071330       1.17730655      13.27017118
Fe       2.76141579      15.81894648       7.75935142
Fe       6.91492374       9.93863429      15.66701533
Mn       1.18789893       4.41168731      15.57337744
Mn      10.35558776       2.12995836      12.48039591
Mn       9.53613078      10.67506426      10.12429785
Mn      10.49332794      19.32751515      17.00419724
Mn       3.65286524      17.38487657       6.80387815
Mn       0.10665815       2.75059485      14.60994915
Mn       9.68001435      20.93327760      15.24868334
Co       8.06190147       5.82034301       5.50786569
Co       7.16208138      21.38226331      10.79484144
Co       5.98454308       5.29405170       8.45333721
Co       3.95162848       3.45915667       5.26517112
Co       0.64337689       2.12566709       5.47560046
Co       4.29916476      19.98856093       7.78304681
Co      10.63514744       8.81070334      14.67498213
La      10.02319926       0.13869207      17.15904100
La       2.90113301       4.22817964      12.81667601
La       2.50951638       9.82577048      16.12147836
La       0.31513066      22.39614846       9.74520456
La       2.84477113       1.14090956      17.25820339
La       8.48921980       7.35641098      12.87500676
La       1.67192491      17.78793722       9.25315529
Cl       3.54463314       7.44981564       7.40377605
Cl       8.64679468      21.63786095       8.27717179
Cl       2.92408557       9.23936049       9.69578809
Cl       7.29618550      11.78978462      11.06570777
Cl       6.01906208      21.25974858      12.19030646
Cl       2.60044388       5.30570142      10.75487595
Cl       7.13887578       9.74782940       7.97338157
180
Lattice="15.18619740852222 0.0 0.0 0.0 15.860700323892738 0.0 0.0 0.0 19.991454761179718" Properties=species:S:1:pos:R:3 pbc="T T T"
C       13.45240806      11.32356881      10.47155945
C        6.87287929       4.18710272       8.97534576
C       10.36490361       3.26657745      11.37839644
C       13.41552860       4.62212072      14.05580405
C       10.41766886      13.14819755       5.89620769
C       14.82343375       3.21892887      13.00216273
C        6.26880030      13.12332570      14.42953346
C        8.02203296       2.78260041       9.95440058
C        5.75391584      15.71369632      14.34494772
H        8.69750973       6.19761577      12.98651660
H        1.50083121      13.48635673       7.02892712
H        1.90134392      13.57874162       8.41450327
H       11.36597490      14.11749436      14.03672743
H       13.56688221       0.37604967      14.14583480
H        7.98930196       4.98684993       5.95583216
H        7.92639774      10.36414568      10.32889877
H        4.75936220       4.34636323       6.19816225
H        8.12976729       0.76120629       9.63842473
O        5.66587003       7.78153306      11.41857474
O        2.50202777       9.64458564      11.29881958
O        9.24776247       1.11583872       5.74659413
O        6.13429979      11.87019438      14.05328209
O        0.36315406      15.63982072       6.91683539
O        0.76028162      11.69769190      10.69375924
O        0.40878372       5.90552750      14.68468670
O       10.46235539       7.41586024      11.41861886
O       11.11932845       0.01600366      13.42378745
N       14.58948774       5.41762026      11.57455417
N        1.69423037       4.34344219      11.15544060
N        2.36252013       5.41658806       5.62615677
N       10.15388541       1.11945138       6.40555650
N        2.92768979       2.16827069      11.34755405
N        1.91827775       4.50763396       5.97006535
N        5.68556183       0.84852673      12.84625770
N        4.27055219       3.38828689      14.75568895
N        4.72095553       4.58800302      12.18923099
S        0.24405668       3.25517117      14.20231423
S        9.80996600       3.86099098      12.84345227
S        1.11363905       9.33843196      12.50286945
S        9.21702513       0.76910549       7.50261527
S       14.02462860       5.42358399      13.12415924
S        2.84255100       9.75121526      14.34511551
S       11.14674905       4.71839850      12.17667723
S        3.10961821       5.47231717       9.68996569
S        1.42624267      11.29231936       6.97934966
Pd       5.38097500      11.72974893       9.61494564
Pd       4.87647506       5.65969784       6.96897330
Pd       5.08075601      11.09610626      13.24167147
Pd      14.46286900       2.99647483       8.79733981
Pd      12.66504566       3.93821630      10.48991532
Pd      13.93420367      12.14827597       5.60046642
Pd       3.66787322       0.01380406      12.51431955
Pd       4.15097673       6.02856172      12.52683122
Pd       5.26110262       0.40075716      11.30806190
Ag       7.56279789       0.74152278      12.54266385
Ag       7.83406759       2.19400038       5.95443832
Ag      12.94544280      13.69071809      12.33426187
Ag      14.99546193      10.90090486      11.71395733
Ag       9.06034749      12.01870437       9.72165644
Ag       1.11959294       4.22349724       9.41736504
Ag       8.66056958       4.68716361       9.40334589
Ag      12.05652388       6.10929092       5.90661399
Ag      10.87957055       4.87514377       7.30667788
Cu       4.95941702       9.73482506       8.42951323
Cu      12.98275940       0.21227413       8.78859731
Cu       2.27365923       7.14117144      13.26959727
Cu       5.72305251       2.85076046      14.28727785
Cu       1.21495050       6.43598639       9.96509764
Cu      10.00000074       5.37193273      10.79274006
Cu       9.76657510       3.20217177       8.34588684
Cu       7.26719986       0.17356230      10.55748541
Cu       2.46488025       1.89931259       9.17916589
Zn       6.57139582       6.02271701       9.91453829
Zn       6.90463303      10.98222965      10.61583325
Zn       2.24883428       6.15863810       8.30325595
Zn       7.93852558      10.81212440       8.59300156
Zn       2.69196471       3.35770097      10.35875402
Zn       5.05226852       9.71544842      10.77885006
Zn       0.08405617       8.27213049       6.26016890
Zn       2.46049485      10.60692765      10.15936024
Zn       2.03168353      15.46173266      10.40513122
Al       5.26464326      13.92804715       9.18040537
Al       3.37295844      14.76034516       9.21662612
Al      11.47609260       5.97565766       9.82488644
Al       1.66146437       2.20773888       5.51764141
Al       7.96773173       9.08610527      10.21398547
Al       4.27686166       0.46179605       9.59577012
Al       8.65620879      15.28599616       6.46225534
Al      11.35567057       2.09964221       6.07565067
Al       6.46149538       8.48237403       5.27666537
Au       9.35320288       3.56365749       6.41626546
Au      13.58308581       8.45351981       8.34025615
Au      13.11819479       9.68267515      14.66537674
Au       7.81488718      11.61676940      13.94069695
Au      13.91136326      10.25103882       7.11648359
Au      10.90635750      10.70629707       6.24840386
Au       9.78902564      10.59578550      14.01917835
Au       9.57407551       3.07770684      14.49631913
Au       2.29493040       8.77870656       5.82959307
P        0.18763867      15.02013879      10.02772273
P       14.08046455      12.08550426       7.49038478
P       11.39837029       3.13028077      13.44855419
P        4.63157208      13.55281743       6.17449506
P        8.44580849       6.93012462       7.80788095
P       12.34476743       9.78326897       9.39712188
P       14.30265859       3.08225276       6.10648149
P        4.22939693       7.44724246      11.16853275
P        7.70460334       5.96511017       5.80525761
Hg       5.36130636      12.04116742       7.50179795
Hg       6.25161026       7.08631740       6.55786424
Hg       6.59583700       6.13030363      13.97032223
Hg       7.68765290       3.18496982       7.96104045
Hg       8.83823972      14.86127492      12.57814827
Hg       9.50375858       6.18940402       6.37822412
Hg      10.38744560      15.47219703      11.15032717
Hg      14.98716962       1.05507063       6.38300060
Hg       8.07350360      13.89769016      14.20337720
Na      12.35153358      12.80954551       9.81738427
Na      14.46823095       7.19494202      11.99741686
Na       6.64527500      14.20983791       6.11704543
Na      12.91549541      15.79509017      11.14103323
Na      10.04043178       8.87676457      12.18127400
Na       0.75745976       4.74566746      12.55700955
Na       3.06276830      10.87002378       8.11683500
Na       4.69484732       8.62080137       6.43241649
Na       4.04184551      13.63537274      10.98964007
Mg      12.58303710       3.88359361       6.21713412
Mg       0.27942925      13.13991440      11.74281839
Mg       5.97028132       0.31762617       8.67407372
Mg      14.56084209       1.70927920      14.60571643
Mg       5.79787556      10.55957107       5.00000000
Mg      11.60534302       1.68547750       9.12969305
Mg       1.35245999       9.49241401       7.60329672
Mg      12.17883677      12.00276672      14.23102503
Mg       1.88089050      11.07488741      11.98592744
Fe      11.85996054       7.89774391       9.42866497
Fe      14.92355268      14.16565064       7.13716710
Fe       4.95595908       8.74587505      14.07787847
Fe       3.64173895       4.76728133       5.24855105
Fe       1.26846596      14.68245036       8.42094746
Fe      13.97333110       5.20411118       7.25659667
Fe       3.69192565      13.15703777       8.22751315
Fe      11.81140924       4.65605448      14.30023918
Fe      12.60527200       6.12561222      11.58614492
Mn       4.08674364       1.86797235      13.68994544
Mn       0.90405474      12.81744307       6.05154190
Mn      12.65195782       4.11862393       8.44265421
Mn      11.98581399       1.23276669      13.54266562
Mn       3.49752236      12.58509503      13.09813670
Mn      10.77819730       7.95442074       5.74315664
Mn       9.43299015      12.81340277      13.24912718
Mn       2.42123207      14.91754214      14.20317467
Mn       4.53563774      14.93960831       7.54151291
Co       7.29989652       8.52171600       7.96948111
Co      10.27773463      15.53172465      14.90253185
Co      13.84357428      11.18661313      13.44890843
Co       7.02534867      12.15658851       5.64128899
Co       7.65871544       3.71145867      14.65150905
Co      14.66406815       8.43558484      13.89625018
Co      10.78843887       3.63272585       9.97199835
Co       9.36991035      14.81252460       9.70642668
Co       3.63124339       6.80343429       5.36267846
La       7.08020569      13.55715862      11.03220908
La       0.51646981      10.46434944      14.99145476
La       7.13379220       9.50218223      12.56135726
La       5.42873241       1.01261309       6.17733315
La       8.40868604      10.04811379       6.10543970
La       7.67591907       3.57716345      12.09563406
La       8.82847439       7.56536115      14.26479212
La       5.67843324       2.67212405       9.91141542
La       0.54655808       8.96911273      10.16834965
Cl       0.90364657       5.15710190       6.35002236
Cl      11.36090450       9.46789284      14.82504690
Cl       9.02373786      13.63518160       6.37605466
Cl      13.19366511      11.91040305      11.78563445
Cl      10.52534256       7.25206893       7.62773759
Cl       1.62702605      12.18222415      13.75334193
Cl       9.48321496       9.82394675      10.42191920
Cl       0.52674442       7.08495988      13.90282686
Cl      11.41785904       9.11903411       7.07522644
220
Lattice="16.221246958319156 0.0 0.0 0.0 13.787397746733822 0.0 0.0 0.0 27.165164029796852" Properties=species:S:1:pos:R:3 pbc="T T T"
C        1.44512220       1.61073523       7.09608588
C       12.41777807       0.50901061      10.14223075
C       12.60551045       9.18541445      17.36579638
C        8.20095403       5.49028510      19.51029537
C       13.26335714       9.46721921       9.31284836
C        0.19132146       9.05643314      17.99472659
C       14.77464153      11.12977666       7.15020496
C        6.12089828       6.24032228      11.83288157
C       14.86656063       9.20380689      12.21262044
C        5.12463225       9.06179770      14.86941231
C       10.77673066      10.68888900      18.36087866
H        3.17842082       9.71835524       9.44557882
H       12.43015682       4.47052044       7.68332211
H        9.61450948       5.21237673       5.35027544
H       13.53151209       6.58543475      12.20859027
H        7.38800662       6.67401312       6.31758718
H       15.04677187      12.48096059      22.03560908
H       11.19559843      13.15450802       8.48683137
H        1.27504637       9.71742476      19.18838209
H        1.06969852       2.23633122      11.11172408
H        9.80670632       2.65750677      15.68041601
H       11.10654464       9.57866938      14.56063808
O        0.66010058       9.56075764      19.94251935
O        6.72171048      11.72254027      13.11383178
O        2.59151935      13.70355387       7.51014978
O        2.29116293      13.48660422       5.58885700
O        0.02430478       3.95089735      11.87145230
O       15.82298058       6.28233748      19.13762746
O       15.61128881      13.44997438      18.89425074
O       10.62987191       2.43900405      20.33215535
O       11.82270196       2.41380541       9.38910070
O       12.60397810       1.32027010       9.32976448
O       14.86708668       3.52795063      14.66703043
N       16.19090249       9.97291919      16.64526948
N       10.82197723      12.73079024      10.75430945
N       13.34259628      11.38071226       7.32378732
N        7.34491593       6.62893941      15.41546715
N        0.57912261       2.85992468      11.55968753
N       14.00596457       4.52420070      10.70343354
N       11.19530236       0.83448407       5.03084582
N       13.52438918      11.16198522      19.49181632
N        0.11440971       2.99833338      17.38021812
N        8.88050372       4.05463040      18.53289599
N        4.14551971       3.13643598       8.21124197
S        3.62926128       6.65623342       5.54668935
S        0.21357916       4.41856882      15.22743354
S        2.53836910       2.19596760      10.13985459
S        3.39985053      12.98315455      14.33388610
S        0.87271851       6.32219440      19.04717008
S        3.21771238       9.09347036      20.23573972
S        5.89909419      10.88353903       9.53121387
S        6.80145087       8.39204542      16.31195837
S        7.04382948       2.51447749      20.23342971
S        0.96227894       8.04758016      18.67268078
S        9.26450631       4.76495475      10.23810626
Pd       0.99945250      10.89530782      12.49113160
Pd       7.91026641       4.70720657      16.04804928
Pd      14.44343220       2.86643846      16.47960938
Pd      12.87038533      11.88438067      11.23942016
Pd      15.79722616      13.06935079      10.58179513
Pd      11.82687416       0.86914029       6.47384039
Pd       4.39803293       9.10215819       7.54865501
Pd      15.25842427      10.81436314      11.68967823
Pd      11.58617893       0.91350732      19.41819860
Pd       2.83727923       0.44869996       9.37413904
Pd       1.26686355       5.01963150       9.88401332
Ag       2.06931553       4.42029235      13.41853579
Ag      14.06622221       7.42398795       5.80539035
Ag       6.05469774       7.04094686      20.41578352
Ag      10.73890938      10.31518132      20.03958120
Ag       7.69977564       9.26488860      11.73001019
Ag      11.94212417       4.52014598      13.03218377
Ag       9.81810277      10.82981460       5.23938965
Ag      11.33779750       1.47792771      14.25738900
Ag      14.81169593       1.28045953      18.24514643
Ag       7.86556522      11.02129114       7.73543456
Ag       6.42071762       1.41019157      22.16516403
Cu       7.60845604       7.30242771      10.64285737
Cu      15.20054648       9.34227112       9.81545723
Cu       8.68455482      12.31930972       6.21026247
Cu      10.62873475       1.05543991      17.63298832
Cu      15.96216355      12.67350251      20.18387038
Cu       7.37301903      12.95821974      17.73865943
Cu       6.56009900      12.61447490       6.41889458
Cu      14.07800277       4.44020565       8.83236244
Cu      15.21385342       8.09007404      19.19675640
Cu       0.68697748       8.24205718      20.73718265
Cu      10.27525221       7.30412816      19.84557199
Zn      15.28764101      10.95655521      13.84090401
Zn       4.29024999       0.50730639      13.36810983
Zn       5.52603822       6.75809823      13.24145641
Zn      12.01062593      10.01349458      15.20048185
Zn       0.60059001       2.72562276      10.10105945
Zn      15.94443176      12.63578824      12.55850580
Zn      15.89611815       0.97863710      19.98768369
Zn       3.31495397      13.44937036      19.07778804
Zn      12.61766887       3.80554982      10.53249715
Zn       0.63471034      11.58906422      14.53510863
Zn       4.19437560      10.30481386      16.89186368
Al       4.06482481      11.69100836      15.30714168
Al       7.01575425       6.34716528      17.99196686
Al      11.05886851       7.18490299       5.97502774
Al       8.40824487       5.56367361      11.48075194
Al      14.87385172       5.11709654      14.97459203
Al       5.72901955       7.63014697      18.34171666
Al      10.03234406       4.95889480      13.62081178
Al       9.02045289       6.16340349      17.14262758
Al       1.69281021      12.77036423      10.15416793
Al       9.87779000       0.75886905      15.45676116
Al       9.29079567       3.40964528      16.34558597
Au       0.94838745       1.08596894       8.81879063
Au       2.82899351       3.39589019       6.86899266
Au       7.30223641       8.80297829      20.10766704
Au      14.97488489      12.52790009      15.21517773
Au      16.19203900       8.61187055      11.39800967
Au       6.80674436      12.58600695       9.09921067
Au      16.02917013       9.66128153      15.08226497
Au       5.88259415       0.10774879      12.28110215
Au      12.64647355       4.28701524      16.51897154
Au       9.25976956      13.45980458      17.08450814
Au      13.70872176       5.23143607      12.21929374
P        4.43175758       2.09274932      14.65992205
P        5.47963741      12.10517867      12.99317927
P        5.49797032      13.64530787       5.44905329
P        3.95007784       1.57533594       7.32692655
P        0.74392395       3.72927337       8.52505442
P        8.32316998      11.99215852      20.45572624
P       12.64885838       0.58487899       8.13867937
P        5.43821152      11.32025882      18.08722357
P       10.31912536       8.67067444      21.34185140
P        4.11954681      11.99517233      18.76220376
P        9.87135595      12.85874873      18.93323365
Hg       3.68611872       0.02887287      11.15179393
Hg      14.72959138       7.61503782       8.84709876
Hg       6.92065170       3.12416680      14.58611172
Hg      10.05603023       7.72607182      17.78394142
Hg       2.81929750       3.46616284      15.67843255
Hg      12.25971511      12.86065436       9.26526551
Hg       7.51964419      10.28405136      16.00730669
Hg      10.48178048      11.20225894      10.71568958
Hg      13.38513860       0.39511228       5.00000000
Hg       5.41488030       3.59880211       9.96502645
Hg       0.18215222      12.56875847       6.58598158
Na      12.74568623       9.68348077      12.40497454
Na       9.89128457      12.05401500       8.22749988
Na       8.30029963      13.22228497      14.60766959
Na       9.19862844      10.27296448      17.47068068
Na       9.29582744       1.65607692       5.21944111
Na       3.01851439      11.21169182      20.57262150
Na       2.56332449       7.18223693      20.06954164
Na      11.86009804       5.22572672       8.95732607
Na      14.75706723       4.94398305      17.38545109
Na      11.20130859      12.74766976      15.11913740
Na       9.41538061      13.69210568      11.61518095
Mg       2.55164355      11.12680799      14.01449465
Mg      13.44286765       8.39375833      10.58968893
Mg       5.38119845      10.89232201       6.48930609
Mg       1.44985155       7.35095445       9.48759579
Mg      10.59013505       5.39614173      21.49268682
Mg       0.08333018       6.67360968      21.90636910
Mg       3.81166150       1.94898181       5.34819439
Mg      15.63265127       6.40402606      13.68622534
Mg      14.77666477       0.90555175      14.55099860
Mg       1.12537366      10.71217747       7.21814604
Mg      15.99853698       7.72816937      17.06620101
Fe      12.82650609      10.29084464      20.85303538
Fe      12.58143086      13.55841477      13.21128772
Fe       1.87764216       5.30384660      15.26257433
Fe       5.59385652      11.35446448      11.39393070
Fe       0.74274295       5.72749316      16.77554286
Fe       3.37754645       5.47166443      16.96872184
Fe       3.23672644       0.96116623      15.92101403
Fe      12.31174988      11.40749073      18.10528106
Fe       0.84506735      10.19971312      21.54691889
Fe      10.85218450       8.58325828      16.17441256
Fe      12.95283880      11.53376550      14.65304525
Mn      11.45567875       2.89491514      18.02880307
Mn       3.14331667      12.89789357      16.75568981
Mn       6.38233582      11.73214684      21.45020688
Mn       6.67769905       0.24282063      16.03449707
Mn       4.58339098       2.15197536      20.19097156
Mn      13.84762461       7.52022350      17.68050741
Mn      14.30722741       0.34473927      12.38426310
Mn      14.43415681       7.55556261      12.36804149
Mn       9.23824014       9.54873813      10.14655807
Mn       0.47194369       4.25203828       5.58499849
Mn      10.37707497       9.22478672      12.09161388
Co       9.97518911       4.01858555       8.76169155
Co       5.86679768      11.04713317      15.43585353
Co       7.95640860       2.68896925      11.73107902
Co       3.80194429       7.31853405      13.17204795
Co       5.86477418       1.56084047      18.82148555
Co      12.79361495       6.27738035      10.64624708
Co      12.43685216       6.31375809      16.65116652
Co      12.63327169       2.41419413      15.83500066
Co      14.94586447       6.17715026      10.38441505
Co       1.88608049      12.32300808       8.10315430
Co      12.30185125       3.08463246       8.14365774
La       9.32410564      10.61732335      14.03900073
La      10.34817820       6.86557504      10.59601959
La      10.46206600       3.06413290      11.43634315
La       8.48782763       0.90864407      19.29074480
La      12.34347878       7.88486029       8.15286508
La       4.89267577       2.69616291      12.41471921
La      10.35002322       0.98533878       8.79340081
La       0.27052863      11.95818672      17.40480932
La       1.52287406       6.59438286      12.01395058
La       0.67425515       1.09975451      16.37109741
La      11.72753872       7.20912440      13.48417664
Cl       5.93247575       8.15022993       7.63270807
Cl       8.74435707       2.46833740      10.07662007
Cl       8.11553563       1.75347691      16.41836958
Cl       6.73228152       0.32732720       8.06892513
Cl      11.38234326      12.67956648      19.65203546
Cl       4.16070687       9.26248281      21.51534347
Cl      15.93093107       6.56707824      15.47905293
Cl      14.39646228      10.26057755      19.28126985
Cl       2.48839499      10.08919687      16.72700887
Cl       2.11842886       1.87101877      14.62778690
Cl       1.11784000       1.05869403      13.57890814
60
Lattice="8.314064965600704 0.0 0.0 0.0 15.352445649989086 0.0 0.0 0.0 20.47991995093951" Properties=species:S:1:pos:R:3 pbc="T T T"
C        3.25050281       1.47752564      15.05240148
C        6.16584570       2.96642836       6.95370661
C        5.64338195       7.09497469       7.99389874
H        7.95335377      15.32749656       5.21372558
H        5.67210251      15.13800263       7.68355323
H        7.77670268      13.91116811      11.87358582
O        1.86427582      11.92997422      14.01512007
O        1.77486869      12.35462104      12.97221805
O        1.57298659       2.10103619       8.63766514
N        3.90033773      12.77856326       5.00000000
N        1.99878137       3.06638275       8.75788008
N        0.46143126       1.61271979       7.67090531
S        3.46170840       9.26942201      12.82868128
S        4.12329261      12.42477543      14.28551496
S        0.31923405      11.19617083      14.66958673
Pd       0.77517950      13.89270511       5.58715177
Pd       4.52943149       1.89372298      13.84891879
Pd       5.81378971      12.67197167      11.95374322
Ag       0.83935620       9.07379546       6.97327093
Ag       0.37064469       7.19732689       5.83311390
Ag       6.98625756       3.78959113      14.71371293
Cu       2.83022934       9.55557679      15.38153762
Cu       0.42110881       5.72843949       9.84988435
Cu       5.56879865      13.61437767       9.05900241
Zn       2.42682619       7.60334328       5.38219546
Zn       5.12738530       2.59481633       5.02591621
Zn       5.80538782       3.84491750       8.75873871
Al       1.58411534       7.50406715       8.00951255
Al       0.18073779       2.65631192      11.59155650
Al       1.61566641       5.44304518      13.98461457
Au       5.00447060      11.01198069       6.65296700
Au       7.86700177       1.68472190      15.23334117
Au       7.21329176       0.52281951       6.42450541
P        4.51813870       1.07956167      11.65507621
P        2.56187129       2.92285763      15.39942062
P        0.02842908       3.91613363       9.45526308
Hg       7.10700405       4.22716144       5.89188784
Hg       2.84779788      11.78846709      15.31030117
Hg       4.26325718       5.03304714      15.00225893
Na       4.55800109       8.86891550       7.04837885
Na       4.00665073      14.42807483      14.69113310
Na       7.53938147       5.12578485       7.97099722
Mg       4.79911052      14.52688514      12.48534011
Mg       8.00888786       6.04450527      13.45499537
Mg       8.15544719      11.11775598      12.84022218
Fe       2.78422855       7.89042342      14.22935737
Fe       6.88748193       6.62497903      15.47991995
Fe       5.94835645       0.87035868      14.91701342
Mn       6.47077985       7.74937648       6.61327671
Mn       3.55481995       2.07230943       6.13294632
Mn       5.91729976       6.12792080      12.90438769
Co       7.90650275       6.67708812      11.34594451
Co       1.35044096      10.75588980       5.11940121
Co       6.63457253       0.61683978       8.50112983
La       1.27903769       8.65626554      12.31873510
La       6.79540293      13.72779054      15.12711348
La       6.32537277       8.64326442      12.76031552
Cl       7.27349262       3.99203960      11.79803660
Cl       1.91647880       1.16213541      10.22454150
Cl       2.45589519      14.93972519       8.26717963
80
Lattice="8.13813448530875 0.0 0.0 0.0 10.522182784358996 0.0 0.0 0.0 20.842875982616516" Properties=species:S:1:pos:R:3 pbc="T T T"
C        4.39688748       3.97717974       7.98239799
C        1.07501091       6.77827850       5.55705999
C        0.82281776       4.93870502      14.11409656
C        7.30531695       5.02159920      10.79237261
H        1.35752093      10.08483518      12.38601975
H        0.53568622      10.51813654       5.51267149
H        6.70772068       0.29908875       9.52369664
H        3.25487882       1.22997576      13.22674660
O        6.44070798       7.91772953       8.54195419
O        0.12917037       9.25777473       8.76369624
O        2.63674860       4.15545941       9.75792853
O        2.50023966       9.49589638       6.15669149
N        3.22293563       1.87140561      10.47435849
N        6.52450589       4.38999271      11.66877319
N        2.17647993       7.80256921      15.62091484
N        2.42458380       6.81488618       5.05545177
S        6.37078918       5.02166128       8.66933129
S        1.89064997       0.69781662       7.10966093
S        2.07111013       0.74327640      14.43884529
S        6.94384203       7.97971496      12.25235723
Pd       1.39093097       8.32833443       8.17724336
Pd       5.78123886       9.18779543      15.11072796
Pd       2.90248969       9.74916008       8.10636143
Pd       2.48289159       6.16103046      13.69592582
Ag       2.42032805       0.41121366       5.22547496
Ag       3.59224537      10.09049110      14.30951075
Ag       5.10512569       0.29115183      13.00485705
Ag       0.13035606       1.23885840       7.07362119
Cu       2.56867908       5.08203426       7.28358286
Cu       7.39441260       2.08619450       9.87947378
Cu       6.97533100       6.00214483      14.94834444
Cu       1.05211588       6.31755557       7.36914315
Zn       3.88249984       8.55998726       6.80987067
Zn       1.97409284       6.89637671      10.48279960
Zn       2.12953350       1.35107281      12.46901675
Zn       4.89473859       7.97319767       8.47251358
Al       5.05484926       7.29740526      10.27115388
Al       3.67939290       0.60090950      11.30402408
Al       1.48403972       2.25750260       5.80766456
Al       0.83167894       4.98194057      10.28420842
Au       3.50507521       6.63039307      11.80835198
Au       0.41424012       6.48454377      12.03703404
Au       3.94123642       0.69746060       7.03664524
Au       6.44004403       2.24654940      15.20370141
P        6.07425108       7.58929615       5.94020146
P        7.62060904      10.40787308      10.27320866
P        2.70483393       7.12234610       7.75241723
P        3.77142950       8.76677681      15.84287598
Hg       7.50173901       5.26199394       7.26709601
Hg       7.79569296       7.70835021       6.71656801
Hg       5.26103101      10.23451494      10.04866873
Hg       5.27204308       7.19336459      15.46226411
Na       4.35598191       5.88649713       8.65827928
Na       1.95770777       9.87066838      10.24676787
Na       5.08295949       8.81973452      11.83344293
Na       6.57365356       3.29918235       6.85149753
Mg       1.19057210       4.43929653       5.91488871
Mg       6.77279040       5.77090512      12.69605766
Mg       4.92580605       6.26996796      13.71585272
Mg       0.94509780       9.58244739       6.56937445
Fe       1.46207501       2.87236146      14.58299369
Fe       7.76362223       3.88652626      12.34941786
Fe       0.66129552       1.00643730       9.01634920
Fe       0.26461227       7.67015898       9.89991629
Mn       0.71298578       9.00581606      14.54994481
Mn       6.62720039       8.72655216       9.85925660
Mn       0.55723380       8.72460858      11.80888937
Mn       7.65477716       9.66999511       5.00000000
Co       5.78240224       0.93593320       6.10125780
Co       3.33856567       8.20095492      13.37142952
Co       6.06994152       6.77135350       7.43299259
Co       5.20988224       2.69613084      12.80681400
La       2.11437883       3.99842940      12.39764681
La       4.74249993       5.26160851       5.78919111
La       4.70725037       4.17683676      10.77842644
La       2.59389018       2.74726248       8.19171397
Cl       3.67742202       5.40313806      14.88106362
Cl       1.64852624       5.90829986       9.07692955
Cl       6.01352510       9.34530783       6.19618093
Cl       5.36172280       6.61937942      11.77763779
160
Lattice="17.356614498396898 0.0 0.0 0.0 16.515208831455183 0.0 0.0 0.0 22.641058270722812" Properties=species:S:1:pos:R:3 pbc="T T T"
C       11.93936712      11.89592495       5.59978870
C        0.12314575       9.23109268       5.09602545
C        8.56065780      15.90555268      14.64017515
C        8.28512286      15.16478634      11.66922231
C        5.96618900       7.32701453      13.82527351
C       13.60796366      13.27696416       5.76660312
C       11.12260329       9.17591980      15.70366626
C        5.74634263       8.53904846       6.36465910
H       12.66950132       3.03995107      11.29882644
H       16.80582386      12.73204570      14.83440957
H       16.99431660       5.41728415       6.92564771
H        0.78048032       0.18610198       7.92927110
H        8.99933245       7.02591430      16.56482684
H       11.89287311       8.51884006       6.44155821
H        7.58373249      14.51145388      11.66372302
H        2.18328511      12.87522106      11.43060266
O        2.45779274       7.80163432      11.33342624
O       13.81810274      16.06625208      15.05146786
O        6.17349662       7.05934321       8.01559222
O        0.48464769      13.12520279      14.95665695
O       14.68738981      15.14564621       7.95056934
O        3.83319486      16.14191616      16.13291013
O        2.97581034       3.24063028      14.97008847
O        2.61679169       8.31970190       6.22210324
N       11.11925084      14.25532429      11.50373318
N        2.82466684      14.44366069      12.77258218
N       11.69359593      12.75611916      16.99163176
N        4.09258278      13.57908399      14.42162334
N        2.32746562       9.78841034       6.23872101
N       16.54020576       6.04679136       7.22927992
N        7.51962689       3.79314055      16.95511138
N        7.13402494       4.26857944      11.42081879
S       11.68564243      15.98508188      13.82387532
S       17.30751711      16.05559999       8.52831547
S        5.52502957       3.83216592       9.53431258
S       16.48398407       2.85963373      10.93013948
S       14.62733839      13.10027686      15.26256208
S        7.85471189       8.16010527      16.41970407
S        2.31733173      14.99979152      16.96703334
S        4.24269883       3.95129318      13.11182514
Pd      12.07301172      14.63848934      15.03626726
Pd      10.77135291       1.38693733      12.09923023
Pd       7.22474025       7.49514056      11.62298051
Pd      13.43975102       0.44587242      10.34029400
Pd       1.92215187      12.85879874      17.64105827
Pd       8.19816807      10.46989850       6.10112270
Pd      14.68796550       6.76374024      11.06021873
Pd       8.63753673       0.01844089      17.17215332
Ag       0.11479231      11.06966736      10.94657328
Ag       0.96531131      15.89265324      15.89716901
Ag       1.03042706      13.07420079      10.03318783
Ag       5.12369360       6.00125618       9.06263525
Ag       2.90360326       4.09524257       9.81212323
Ag      14.85263911      10.96496484       5.87138208
Ag      16.69285967       9.88300508      12.76678028
Ag       8.84085051      13.25913056      17.36737469
Cu       9.61261218      11.88696398      14.56428940
Cu      14.27942707      14.68423510      14.62518971
Cu       4.44898239       9.94792308      13.91196978
Cu       5.62687292       2.05960107      14.99863342
Cu      15.84047184       0.45055651      15.45920728
Cu       6.56320218      15.65814098      17.46226759
Cu       7.65476602       7.73344734       5.82408330
Cu      15.62189123      13.06957542       6.99077470
Zn      14.46678795       6.86370998      15.28443352
Zn       2.88658137       6.45656762       6.56468756
Zn       9.55529851       8.60676096      11.01427639
Zn      16.98384551      16.50190760      10.27550246
Zn       6.51875190      13.47421296      12.66261189
Zn      10.65564570       0.68153465      14.41135373
Zn      11.62745064      11.18898565      13.66384565
Zn       5.69133463      12.70015823      11.17052363
Al       1.20704444      14.79129795      13.16115576
Al       5.27305879       4.13302167      15.34833579
Al       3.64337515       2.38722575      14.12894872
Al       2.11683050       4.21500470      14.20651819
Al      15.72275994       5.83286274      16.19342311
Al      13.81404262       5.34996930       9.47787150
Al      14.54571463       4.12944863      10.77752665
Al      14.98383122      11.22993357      13.60597247
Au       5.24484354       8.70926354      16.63829565
Au      16.83982161      14.48278179      13.87094273
Au       1.10860125      14.84618570      11.24920061
Au      14.61041862       9.74654213      10.99869791
Au       7.42398587       3.59395882       5.75541532
Au      15.05879658       0.55236087       7.51166201
Au      12.97190644      11.39165114      17.30776807
Au      10.17694087      11.71310372       5.47006319
P        3.26945676      10.30724932       7.59018878
P        5.93545826      11.92469072      16.22284456
P        2.58931669      11.79565960       7.20010148
P       15.21872836       1.19574077      17.03430005
P       17.13476795       3.14894041       9.43829079
P        0.47816861      13.19098463      12.12323928
P       13.90027990       2.28087287       9.46675665
P       12.69205127       1.57318923      12.94559299
Hg       3.88286171      15.67113226      14.59795478
Hg      12.19502570       7.33444741       5.67637643
Hg       9.99958766       5.87063214      12.71182825
Hg       5.20770167       4.78778942      11.02848730
Hg       3.06717948      11.06948830       5.40004259
Hg       4.42098918      16.35222200       9.22524723
Hg      11.30922846       5.93358409      14.27886993
Hg       4.87712841       6.30437125       6.76900187
Na       4.29034424      14.50562961      11.03485366
Na      13.16703963       0.79774765      16.27847637
Na       8.35986734       5.85185316       9.57153593
Na      12.71026583      10.14283248      15.28251524
Na       0.49942881      11.32646326      14.26516399
Na      15.33297778      11.97761933      10.69670166
Na      14.60072985       2.45205138       6.30143391
Na      13.47539838       5.44015616       6.07792138
Mg      11.52182686       2.73681598       9.43181134
Mg       7.88551275       3.11800066      12.60038337
Mg      16.47827195       2.52545838      14.80629485
Mg       7.55752249      11.51599979      17.05056066
Mg      17.14340029       0.06868517      13.86761519
Mg       6.43907565       9.27599572      10.75908965
Mg       6.55981035      15.51316182       7.52131221
Mg       1.84181294      16.20014511       5.59764232
Fe       5.24410943       4.31030943       7.72133154
Fe      11.41819802      15.99639560      16.37010234
Fe       8.27582659      15.81643013       8.92444093
Fe      11.54936743      12.07104601      15.46338680
Fe       5.70177342      13.57020099       8.06822272
Fe       5.06529782      11.71974292      14.39512376
Fe       7.60898366      12.42357789       6.05914608
Fe       9.86096813      15.12830202       5.19078844
Mn       1.32825269       9.21667539      10.64753066
Mn      11.41482186       6.29212366      16.25357097
Mn      16.90218376       7.77279291      11.68558583
Mn       1.88286109       0.03467544      13.78596065
Mn       2.51729821       6.60688163      12.66391661
Mn       0.44760798       9.01796541       8.52140214
Mn      12.48570313      10.22402477      10.23814360
Mn       1.66559163      13.56471111       6.87683740
Co       0.90218490       1.44527739      15.13300128
Co      12.11958662       5.65102974      12.57708542
Co      12.81470865       7.91415801      16.02171298
Co       5.54055040       0.89301149      13.16314570
Co      13.92340603       8.09831959      17.48607177
Co       9.98034067       1.31488136      16.39452786
Co       8.25414460      12.88576160      15.45986353
Co      16.42825750      12.63306583      13.02233201
La       7.96697790       1.27327523       7.04355722
La       0.05810018       7.75659335      15.15280386
La      14.50896274       8.58367560      13.44082858
La      15.61431468       4.34294086       8.05384482
La       2.77307839       1.86552492      17.05019762
La      12.84643460      13.68170886      10.51756754
La      16.74720112       4.08083973       5.01261703
La       4.06558262      15.12800183       6.77320536
Cl       4.01876488       1.78389577       8.73256190
Cl      15.95075743      11.65662691      15.82716127
Cl      11.85424348       5.15911888       5.00000000
Cl      14.17372602       4.11477722      16.23669736
Cl      12.04492357       3.57385923      15.48733930
Cl       2.87016915      11.06237105      11.71933786
Cl      11.05135036      15.82183847       9.28699816
Cl       9.78712072       4.43457396      17.28183326
120
Lattice="14.428299997296282 0.0 0.0 0.0 12.395764738024413 0.0 0.0 0.0 20.745874741692724" Properties=species:S:1:pos:R:3 pbc="T T T"
C        6.74680238       5.23417561      12.13326916
C        7.25899452       4.17271905      11.51303743
C       10.17791628      10.65880437      12.99925848
C        7.95730713       4.22887949       5.48753997
C       14.36961244       3.44106165      11.29342513
C       10.13529856       8.73322252      13.72327061
H        1.83654540       5.19492402      13.73528503
H        7.39508061       1.98496049       9.41411935
H        8.76059471       8.85383626       6.16540592
H        1.43584730       3.45731763      13.67851256
H        5.23490849       1.40734492      15.55115900
H       11.08871456       6.88927621       9.37693322
O        6.86322486       7.71828972       5.81498596
O       10.88079837       2.82312396       9.50949523
O        8.86985212      12.01321032      13.89469941
O        7.98174101      11.09442649       7.35511659
O        1.62532845       3.04055569       5.28734561
O       10.70953920       7.65508834      15.43502135
N        7.74986740       4.92569519       8.55122995
N        9.72632306       7.28425460      10.82529510
N        1.54043378       0.44953386      13.90133316
N       13.12802500       1.42988110      13.42030926
N        3.08300672       5.01638792      10.33176497
N        6.36144318      10.35725612      12.83746509
S       14.17119050       4.10535481       5.19212125
S       14.34711888       4.66022077      13.79388903
S       10.91520177       4.04009648      15.00353681
S        6.13742556       0.77749358      13.44843140
S        3.66354001       8.42740082      14.05773535
S        5.48311338       4.51896250      10.12979822
Pd       0.00564638      11.00129048      11.06815930
Pd      13.19135011       9.22582155      11.14651106
Pd       3.55643771       8.09974159       7.53062546
Pd       2.31579863       2.33364363      10.69454885
Pd      12.76990784       3.57095317      13.77926328
Pd      12.38251400       0.99266668      12.08087508
Ag      10.78011645       2.50391907      13.56715848
Ag      11.31212784      11.14926817       9.61783437
Ag       2.94005731       3.38780963       7.27642176
Ag      14.22995423       2.51011810       9.80521863
Ag       8.11663618       2.72807804      12.31846331
Ag       9.83607044       0.78882084      12.71827152
Cu       8.33126254       0.85942474      14.46266819
Cu       2.57945543       0.20463462      10.16047663
Cu      10.24248701       5.99079862       5.00000000
Cu       7.01290839       5.47391243      15.74587474
Cu       2.73086274       8.03208653      12.62168932
Cu       2.36480846      11.94264779      12.53649897
Zn       8.27783853       2.68474853      10.06766644
Zn       2.14411629      10.54177199       8.17230594
Zn       5.08196737       0.21723633      10.72064192
Zn       0.80133040       7.20986423       6.67712671
Zn      12.00938380       5.28030020      15.45756326
Zn       0.49448702       0.05935849      12.49397367
Al       7.79526221       6.23355983       7.24129911
Al       4.05482998       2.44695313      13.78945834
Al       0.24390977       8.32740674       9.37272497
Al       6.15236600       1.93042652      10.53621047
Al      11.14559046       9.21718144      10.45208747
Al       4.08402880       9.97800660       7.93367180
Au       1.70686077       8.17942605       5.17208184
Au       5.32929616       7.93661294      13.30470494
Au      14.30929076      11.78784591       5.79893153
Au       4.09743345       6.03779993      12.71103850
Au       5.45361352       9.26490476      15.62906862
Au       7.82366818       3.05581176       8.12651694
P        7.21135900       7.50007324      15.00564869
P        6.12521492      11.35390003       9.72199177
P        8.17883122       4.48465626       6.91748490
P        3.41823540       1.54118760      15.22630996
P        3.67216592       2.00286251      11.83488321
P        6.73317042       1.36398969      12.08593933
Hg      10.05973682       4.26138436      10.40891050
Hg       5.77700018      11.24125727      14.18976894
Hg       7.67290002       4.78978433      13.56049820
Hg      12.32344183      11.25582738      11.65794639
Hg      10.56558519       0.30246653       8.31816591
Hg       6.21473970       4.26150162       8.45808335
Na      13.65043045       9.55542530       7.39765352
Na      13.44101305       1.03255171       7.13015481
Na       8.39376232       5.91609495      11.50046810
Na      14.19289910       0.14301669      14.47475725
Na       2.51592066       4.32996182      15.34592993
Na       6.42186843       2.76193081      15.68916228
Mg       4.24312177       0.31993239      13.77496842
Mg      13.87315534       5.84849356       7.08613083
Mg       5.88392327       6.10049636      14.05558729
Mg       8.47153015       9.20342866       7.38472992
Mg       0.88765539       6.07429185      13.22565185
Mg       4.75589410      11.83969864       8.39647731
Fe      13.71131114       4.37244557       8.44528814
Fe       7.63408190       0.33294365      10.41414057
Fe      10.72798338       1.59613956       5.26422237
Fe       8.11005889      10.84972850       8.97305988
Fe       2.34986583       1.67923475      13.21671458
Fe      10.45315032      11.67930595      14.20086330
Mn       7.96556769      11.03150932       5.34002683
Mn       8.33072292       2.31976818       6.21790486
Mn       4.72693289       4.16618020      14.93977913
Mn       6.39145620       0.28761732      15.45673762
Mn      13.42286081      11.12784132       8.98548356
Mn      11.73177841       9.42492705      13.68162935
Co      11.53239392      11.15063580       7.55191796
Co      12.38045909       3.06253407       8.85165307
Co       7.51378624       7.07166213      13.28268202
Co       7.97406213      10.95378307      12.90000121
Co       6.11499190       9.78130030       9.05031382
Co       0.79782141       3.09364414      12.65408658
La       4.40680699       6.76288263      10.31748647
La       8.04323118       8.46577976       9.92058112
La      11.68766498       5.44890498      11.91714704
La       4.88845506       5.15793404       6.56026635
La      10.04404504       7.21297650       7.77177241
La      11.84567331       3.61481041       6.48711998
Cl      12.92115717      10.74268030       5.11912603
Cl       8.09744964       6.23365245       9.07302304
Cl       6.26816513       9.02205674      12.24269128
Cl       4.17760138       6.61155440      14.75685609
Cl       2.56470019       7.29295350      14.54497058
Cl      12.09786148       5.80544265       7.24717337
120
Lattice="14.613291277279751 0.0 0.0 0.0 10.703120387234609 0.0 0.0 0.0 22.246218860088824" Properties=species:S:1:pos:R:3 pbc="T T T"
C       13.92033970      10.65568853       7.75656057
C       11.79782824       0.74020522       5.72639673
C        0.87358834       9.33004498      14.59230979
C        7.37502294       1.93598336       8.02871494
C        8.30934789       2.74295487       8.80108801
C        3.01290667       9.36812555       5.39968905
H        0.49487699       6.72791623       5.24439642
H       13.01100555       6.29437774       6.65540136
H        4.51784793       0.20640028       9.60566101
H        5.94954986       6.69607698      10.16266070
H       12.47021002       4.12853136      16.80547250
H        2.83342866       4.07385833      13.46750330
O       12.53481806       8.66415340       7.81589001
O        9.74784427       2.55629035       8.29184489
O        2.16101210       0.41803843       8.23973576
O        4.50598538       1.46737703      11.49241289
O        4.45879416       3.22471453      16.71696907
O        2.09202148       6.12103405      15.71058794
N        4.15402624       2.63529058      11.55712772
N        4.33320753       6.02575515      12.00192041
N        5.50946775       2.03618570      13.50837569
N        5.38330092       3.23191160       8.84919441
N       13.03692301       0.23274808      15.07397404
N        4.84733405       6.51889774      16.15481893
S       10.55438927       3.78646988       5.64499433
S        0.22041154      10.34112058      13.60536907
S        1.94136509       2.63547307       9.06158437
S        2.74915963       2.41997097      11.50384254
S        4.96701706       2.13226937       9.53519873
S        3.41365335       3.07033524       9.37270089
Pd       3.26924687       9.16074939      14.32059197
Pd       5.12301599       4.73934145      11.46938670
Pd       8.67730254       7.62342045       6.96764587
Pd       5.08211339       4.50383387      13.50180721
Pd       3.35393066       2.17852501      16.71394826
Pd      11.29761153       3.49225046      16.18831387
Ag       6.76883133       5.59329488      14.36225868
Ag       1.61694251       9.43736182      12.79835525
Ag      11.17224467       6.42299431       6.02329135
Ag      13.30663413       4.67197971       5.28678476
Ag       1.32037550       1.44840740      10.54991018
Ag       7.11441832       1.96996096       9.65945921
Cu      13.25180025       6.23753681      11.41960982
Cu      11.20107706       9.15195290      15.72474938
Cu      13.85699172       3.67423864      14.91218177
Cu       0.74749921       6.85884926      11.91811328
Cu      12.42134913       1.17614784       7.27240714
Cu       8.03680810       0.84009611       6.88114266
Zn      13.73159834       2.03902143       8.35045822
Zn       4.27350106       9.67836951       9.88053912
Zn       2.21359814       0.36336509      15.94344061
Zn       7.80062844       9.64824332       6.44610303
Zn      14.54773323       3.02451498      11.39715990
Zn       3.38438569       1.12324872       8.33583715
Al       1.15240389      10.40805734       9.14454831
Al       3.48484188       8.36068705      16.27923324
Al       9.60071334       2.20528265      15.98289835
Al       9.36531749       7.36021257      13.40472905
Al       8.59501966      10.32114757      13.32364212
Al       5.83249087       3.99593877      17.24621886
Au      10.21470563       0.33524718      15.89440652
Au       6.13134353       9.93512650       7.43805577
Au      11.06999145       5.53199449      16.36989690
Au       8.91367719       0.84165855       5.03493944
Au       0.22785178       5.30242139       8.67256341
Au       0.96094616      10.40408591       5.00000000
P        8.83305810       3.35154800       5.95046050
P       10.45362326       9.58403237       6.20838599
P        3.62766820       0.07794512       5.21437840
P        0.39821056       8.47923699       7.35403737
P        1.63897153       2.72966885      12.86220036
P       10.73628303       5.26203952      13.87933194
Hg      11.80205048       5.53347263      10.15436436
Hg      13.82277544       6.82823882       5.60195488
Hg       3.73244798       9.85501825      12.29116660
Hg      12.92026744       8.99616568      12.23739608
Hg       8.92030088       5.34705250      13.74979700
Hg      11.74614546       4.46539414       6.70164197
Na       9.10446766       9.24596542      17.01859629
Na       6.29144486       7.69770578       6.38513414
Na      10.21921425       4.27879797      12.03198160
Na       7.49523605       4.89551915      10.92960069
Na      10.28284326       1.94509566       6.75578086
Na      13.11087801       4.30867603      12.76686052
Mg      14.04764289       8.54867477      15.53077693
Mg       6.94996287       2.88716223      14.83424536
Mg       9.41783644       3.34918491       9.96299267
Mg       6.58840081       1.47137638      16.73510940
Mg       9.95000078       3.30419031      14.10357365
Mg       2.73692569       6.55409352      12.13389224
Fe       3.55825430       1.18901668      10.32522112
Fe      11.51917997       6.22765527      12.43975647
Fe       8.15940232       1.36462999      14.35181845
Fe      13.31221235       7.70118669      13.68226473
Fe      10.87698609       6.79287104      14.74070901
Fe       0.13814325       3.38996399       9.24622435
Mn      14.35238723       5.92831995      13.68637495
Mn       6.91633038       1.63621101      12.81012165
Mn       9.58010446       4.73896218       6.95457360
Mn       8.19564080       5.94823312       5.89254312
Mn       5.77320785       2.66462068      11.37623475
Mn       7.52664210       3.59038480      12.85270746
Co      13.95339640       0.34765518      10.01160837
Co       2.12816211       6.25313063      10.27272598
Co       9.40741592       7.36778076      15.88132564
Co       3.82108702       1.90043286      13.65099065
Co      13.95349695      10.66610522      16.21665549
Co       4.55531256       8.94606987       8.15747970
La       5.32625474       7.87734662      11.33412618
La      11.52240451       0.41637316      13.60074090
La       8.63690815       4.61071355      16.23519300
La      12.14805560       2.77122406      10.36135828
La       9.58297878       6.80719783      10.90617686
La      11.69542678      10.07661245       9.22316676
Cl      10.04660017       9.72434219      12.39523585
Cl       1.28707779       5.77902817      16.66951457
Cl       6.80237449       5.75293832       7.05213373
Cl      13.44814835       7.19080313       9.77888221
Cl       7.68637927       2.62443720       5.07539764
Cl      12.39787714       2.84472711       6.40062006
