80
Lattice="8.276213082818828 0.0 0.0 0.0 14.84604979401167 0.0 0.0 0.0 22.342484458207366" Properties=species:S:1:pos:R:3:forces:R:3 energy=-175.29669189453125 stress="-0.13626180589199066 -0.011967295780777931 0.016588902100920677 -0.011967295780777931 -0.15044580399990082 0.034465234726667404 0.016588902100920677 0.034465234726667404 -0.15809087455272675" pbc="T T T"
C        6.07312102       5.45321520       7.84604811      -7.36828518      -9.82635307      -4.89633417
C        4.81673947       9.20703049      14.10493374       4.05583572      -1.50216079      -4.63555908
C        0.74714808       5.99270656      11.00994752      -0.16851151     -17.13307762      -2.00410891
C        6.98147013      10.95333541      11.04610805      -9.01861000      -2.73994231       1.27984881
H        6.60394169       6.13661521       7.98862372       7.87693119      11.78668785       0.97847044
H        7.95510325      11.08403692      10.81151185       6.40657282      -0.92739403       0.55405569
H        5.60827782       2.87812653      13.07325949      -0.44250068      -0.50921559       2.10225224
H        3.06347510       4.47680538       8.66143077      -3.10806274      -1.82435632      -1.01018548
O        0.98322332      10.07645097      14.04931246       0.79413867       1.78465939       0.78291810
O        7.39034010      11.44424833      16.61476329      -1.63936853      -0.42706621       0.52359277
O        2.29457346      14.19577133       5.00000000       0.24293225      -1.08378983       0.18159899
O        0.60122191       1.84968907       6.88567109       1.27435660       0.56503934      -2.49947047
N        5.24351211      12.82131576       9.12938530       4.13341475      -1.74339414      -1.83787727
N        1.26026899       0.21751500      13.28484504       5.42164612      13.39071465      -8.76952171
N        7.29753471       7.50650746       8.11287254     -32.01650238      -6.92762661       6.37604713
N        1.55066230      14.62889498      12.26983393       1.55684614      -0.16893694      -5.53459597
S        5.18977858       0.20838288       6.86408268      -5.95472527      10.67886162      -9.62282085
S        6.11795001       3.83501710       8.22542352       1.60790646      -3.83757782      -4.10231256
S        3.42466919       8.51254302       9.36037410      10.60501385      -0.21672143      -8.50693512
S        2.81431279       8.11509657       5.21009489       0.51849747      -0.12821737       0.90918785
Pd       2.02559899       8.28356609      10.57316918      -1.05308151       5.63834143       5.28768826
Pd       6.64416249       1.74679692       9.00626935      -3.61737442       2.33552122       1.13344646
Pd       3.46892585      11.60165103      14.11588960      -4.16289043      -7.10453701       2.06133771
Pd       0.63530528       6.40037825       9.27257634      -4.54173183      -9.76103020       5.34237623
Ag       7.33721781       3.26055924      13.69585730      -2.46130180       0.91517913      -8.35346794
Ag       3.79741691       0.62267042       8.41394609      -7.21779442      -2.53918862       2.85811234
Ag       5.93132006      13.53799857       7.69288016      10.54195976      -4.49458408      -3.51166940
Ag       0.17793551       0.58969101       8.47508711      11.90450478       0.02923617      -2.61821604
Cu       4.51984947       0.25341683      14.46999981       2.86929059       0.28287438      -0.56889880
Cu       4.76290887       2.47563376       8.01704149       1.24320138      -4.77697945       1.73343825
Cu       7.90653247      10.64432152       6.04737043      -1.33561862       5.79122400      -1.01245868
Cu       3.49867767      11.58776102       5.26536338       0.15722580       0.46964872       0.08089203
Zn       6.68614723       1.19874396      13.55727963      -1.40007544      -3.36846304       0.65606332
Zn       4.73586167      12.66722597      13.10512228       4.60722494       1.99059510      -1.21996748
Zn       3.80967594       9.63564940      15.31088025      -3.73553276       1.08892560       5.92954254
Zn       3.95406855       3.89150026       7.10420887      -4.86905861      -0.63447458       0.19457620
Al       2.10641367      11.08701952       7.01206508       0.04601297       1.09414923      -4.54084158
Al       5.67461385       5.56061471      11.66208908       0.44946730       2.15499306      -1.43491697
Al       2.43126369       7.57350697      15.15117193      10.33820343      -1.43176019     -15.71598625
Al       5.24085946      11.50259623       7.62993015      -2.97825098      -0.66657519       0.57458442
Au       0.47907627       7.33903332      11.82641037     -10.04123306       9.22776508      18.41261673
Au       5.84213533       9.57818203       7.00404426      -0.43029952      -3.66067410      -0.47461659
Au       0.56088373       1.31599613      17.23750912       0.98154384      -1.06388617       8.03480244
Au       1.00431428      13.08481655       8.85963755       4.33801889       2.61157250      -3.61057711
P        4.69583641      14.19706609      11.90605644      -6.56527853       5.94272041      -2.15089273
P        3.78749852       5.17184334       5.80287441      -1.71135628       7.54397583      -6.31599331
P        5.83876378       9.38616975       9.99441200      -1.08999801       1.11290169      -0.06036560
P        1.41305796       7.70049363      16.48552549      -8.40929508       7.41668463      15.90293980
Hg       0.73294200      13.95105712      14.42949443     -22.48264122     -20.42252541       9.86034489
Hg       0.50172219       7.84008565       7.85508619      35.75226974       1.04949641       1.47006345
Hg       6.79800489      13.95518779      12.27552284       5.80758858      -0.82673746       1.68062556
Hg       4.19489010      11.97224977      10.20941872      -5.57355070      -5.04681015      10.14134407
Na       6.51780437       7.05296908      15.78722756      -0.61855698       1.36595929       0.27907050
Na       6.81210297      11.49671587      12.97832179       0.72254515      -1.44685614       4.01746464
Na       2.18358071      11.08041556      12.30866545      -0.63867337      -0.19140616      -0.26728809
Na       7.22057089      12.83424253       5.27031322       0.19472080       1.07688975      -0.97073227
Mg       0.17922535       1.76997003      10.46774048       4.31359768       2.81607819       3.36415339
Mg       5.53917992      14.49759480       9.79853418      -1.87708211       2.61908317       1.83431649
Mg       5.15376069      13.19112059      16.69597754       1.71750760      -0.41294086      -0.53479308
Mg       0.31711487       6.09025186      16.65988020      -2.37138462      -6.95373583       0.77993578
Fe       2.52346366      14.57012645      14.85484785      13.68997002       6.44284821       4.53016090
Fe       0.09223849       9.94222746      11.63772754       4.00746632       2.71307945      12.98856258
Fe       2.29064962       6.13825977      10.51129305      10.75373459      -6.47392368       2.11486340
Fe       8.25231811       4.71180331       7.41141714       1.95359540      -1.62315702      -4.73020649
Mn       2.75756494      12.43397554      15.90233576      -2.98837996       0.66176689       5.39129162
Mn       7.27856170       4.94344488       9.21194839       0.07061215       1.18658173       9.43589783
Mn       2.33388040       5.85201907       7.93978140       3.37871790      -0.21092010      -4.15904045
Mn       7.67983221      12.09089566       9.94254781      -6.10368061       5.11298227      -3.75756884
Co       0.56193340       1.37441827      15.18511154       2.94978380      -3.67272973      -8.57818413
Co       7.57523075      14.70260067      10.18900248       0.53187674      -4.95617962       5.32720280
Co       6.85800409       5.29035731      13.30924901       0.15665275       4.22292280       0.59737504
Co       3.36751996       3.25088930      17.34248446      -0.54295015      -0.33998179      -0.25521260
La       4.71656663       7.07520248      13.55426902      -0.59536135       0.91543323      -0.70086479
La       6.13323951       3.10616070      11.20726814      -2.29056025      -1.98354769      -2.18100548
La       2.08794592      10.72179297       9.46038522      -2.16869211      -1.80504537       1.59657323
La       4.50899435       5.28067842       9.35674053      -1.94619846       4.90826702       3.53140926
Cl       7.48494565       0.31426369       6.68590936      -0.02943135       0.06092468      -8.06042767
Cl       0.17742169       8.97371522       6.55016378      -2.41778684      14.35851479     -23.14955521
Cl       7.96795093       9.06334093      10.20984855      -3.21658254      -5.43585300     -10.61373043
Cl       8.16824210       3.03252477      15.37660248       3.22685623       6.93723345      12.13615036
220
Lattice="14.306539574896386 0.0 0.0 0.0 17.65055830980551 0.0 0.0 0.0 25.639156468139102" Properties=species:S:1:pos:R:3:forces:R:3 energy=-491.15301513671875 stress="-0.16987396776676178 -0.003196821780875325 -0.004883614834398031 -0.003196821780875325 -0.17661811411380768 -0.012536870315670967 -0.004883614834398031 -0.012536870315670967 -0.17331169545650482" pbc="T T T"
C       12.80497828       3.67376383      11.07292313      -3.04291201       0.08517569      -5.81071234
C        4.88447682       5.16298581      14.86597342      17.46084023      -4.20032024     -20.59936905
C        1.09157738      10.95625611       6.55859316       0.48153594      -0.13630272       0.03178456
C       13.72878629      13.39731638      19.94547106      -8.98231983     -11.27979660       1.49323833
C        3.16928843       7.99807781       7.49507612       3.39389086      -7.70941687     -12.78808022
C        6.58053439      17.56611717      16.87950620       0.21132429       1.23209929       1.42922449
C        4.86918682      13.65786773      16.56074322      -1.90509748       2.10576510      -0.27358860
C        9.78159769       6.33762815       8.41909440      -1.69139957       1.26268935       0.51738667
C        5.69355300      14.72123406      16.19016277       1.88563490      -4.38733006       4.92335367
C        6.35773010       7.37359993      11.05772394       5.28843164      -4.78822708     -11.64299393
C        9.40259061       9.44410628      12.33665824       0.08337939      -0.03062069      -2.49585271
H       10.63627823       5.09637965      12.80270056      -1.29634976       7.95192909      -7.33897305
H        9.87514817      15.30560282       7.97755067      -2.79096842       0.29529265      -2.22993708
H        6.96851416      16.67913088       9.62192417      -1.54042912      -5.58322954      -5.23555803
H        7.83782280       8.05268165      10.65540882      -2.50869942      -7.33638287       1.39557171
H        8.75053289      12.53001734      15.46194268      -0.80466384      -0.67076784       2.31420088
H       12.73936716       2.03294197      15.68578200       0.40499479       0.63410056       0.39509708
H        5.63569881       8.55933385      16.20730175      -1.00901294       0.32628053       1.40932453
H       12.87302629      11.61484271      10.84638089     -11.08136749     -16.74431229       1.30038643
H       13.75959954      17.35026718      15.60197895       2.67427444      -3.64914656      16.91918945
H        4.66133463      16.83486156      15.95562668      -1.06034946       7.57732868       3.83418679
H        7.45214242      10.49173120      13.90708701       0.65785205      -2.03291869       2.85163212
O        5.08434215      15.50722093       5.75477381     -27.20073891       1.21007037     -31.63953400
O        8.95161052      10.46604014      18.22459880      14.83283138       5.03736973       2.00557804
O        0.08575661      14.21539039      19.75726046       9.58745670      10.92010498      -1.82370496
O        4.98295831       3.41560254      19.47571681       3.47681904       2.27142715       7.57471848
O        7.07134700      13.07952765      16.78232414       1.71631765      -0.87067389       1.35767937
O        0.65089012       9.55906857      12.99121769       0.54407525       2.68518257      -3.40332222
O        3.18729696       9.07555473      17.74886040       2.76747322     -10.96094036      -6.93461895
O       13.75819149       3.79627743      11.92804754       9.59330082       5.78115082      -5.54687119
O        9.38378666      15.57852394      14.59984200      -5.27532625       1.73358524       1.62536144
O       12.37878902       1.29692757       6.51193412      -2.73098826      -1.41450131      -1.99910903
O        8.68690272      10.76718544      14.65116554      -5.64295101      -0.75874126       4.18739986
N        6.74227365      12.30354809      12.03453611      -5.21855354       9.92567444      -5.18957949
N        4.45337506      16.34604969      13.33854957       0.34444195     -18.95402908      -7.86060429
N       10.96239213      14.77355425       8.61031711       2.60112357     -14.19951630      -5.12569380
N        0.01114100      17.53155908      13.30392499      21.70041656      -1.46266901       8.95581436
N        8.54218334       4.77279408      12.53908165      -1.61056840       1.09823334      -1.71207356
N        6.85369627      17.59416331      14.17331452       2.69957519      -2.28808308       4.90237141
N        8.82158166      13.43037460      15.02138366       0.19651154       1.68217325       0.15280965
N        9.52171599       1.64717524      18.64275161      -1.00151789       1.55122960       0.89320505
N        7.80578609       9.06496258      19.32648638       0.90542591      -3.81407690       6.42441273
N        6.97631394      13.64452479       6.71697169       5.08669329      -4.73896074       4.22045517
N        9.91852203       1.78711033      14.73745842      -3.71597052      -0.77084488      -1.19566929
S        2.33097121       0.49578519       9.23865584       5.92879152     -12.09314346      -6.93999481
S       10.71791521      15.69322272       9.50902770       3.08329558      -3.06862831      11.99177361
S        0.01031755      17.51401476       8.48015102       0.76406276       1.13401222      -3.32338715
S        7.91999935      10.80682418      11.29398636       8.56020641       0.22611055     -13.07523155
S        4.93853421      15.80530359      15.49137158      -2.80209804      -2.20614767      -5.70364714
S        5.33314632      10.85576951      11.12240501      -3.48274970      -1.41908598      -2.08404255
S       11.23768865       5.95364519      19.42547410     -12.89215469       8.61778641      -4.36726093
S       10.26842700      17.06370840      10.23188254      -6.41485023      16.54291153       8.02481174
S        8.43098037       3.38408082      20.06500480       3.05150342      -0.42277798       1.04918623
S        8.20119933       8.92839022       5.16472729       4.99757957      -1.61315870      -9.66438866
S        9.37089465       0.48172729       6.03888669       2.08452892       7.67354012      -0.77009660
Pd       1.65149268       5.25695874      12.06016613      -2.11537814       5.27447128      -5.51419401
Pd      12.58074715       6.29760096       6.60991369       1.41297388      -0.52463114       0.92535841
Pd       7.31786128       9.02693209       6.87083806      -9.89137268     -10.99206734      -1.78956914
Pd      10.47201402      10.06696417      14.71592502      -9.90005112      -7.88712311      -0.67678887
Pd       7.75704539      15.05170848      12.04280791       5.36539316      -3.83737206      -3.13106871
Pd      12.67501940       5.01315205      20.02908129      -5.81523085      -8.46779442      12.54384422
Pd       0.14448716       5.36060269      13.67166070      -8.08546638       0.84075493       0.98577470
Pd      11.11569529      14.71319944       6.91942765      -6.67267704      -0.39416879     -14.30570030
Pd       8.51194099      12.57549335      12.78752211       6.95128584       7.98876476      -2.47518182
Pd       1.63984911       6.35500088      15.14501990      -4.67918301      -0.30823404       5.26510906
Pd      11.30906860      11.50176613       5.85848246       0.47701144      -0.09486391       0.90594256
Ag      13.01551838      13.95860291       7.58567516       8.50654507      -4.15223932       2.91748714
Ag       3.01886466      16.57345944      18.79524346       3.16712761       1.74189401       1.89649272
Ag       7.18375882      11.12747248       6.79394199      -5.62622166      15.48427296      -4.05553102
Ag       4.15169217      10.65646383       8.43740203       0.73625553       4.23561764       1.52358019
Ag       4.28497318      11.98558840      15.27461455      -0.82800764       3.68507934      -1.27502251
Ag       0.51536024       2.74989484      17.20051056     -18.25542068       6.73118401       2.76356030
Ag       0.90279569       1.60398844       9.88288024     -15.21680450      11.82053566      -4.66051626
Ag       9.44120799      15.57531980      19.74119805       5.20202017       9.35643768       0.16724712
Ag       2.02828573       1.98119243      15.92888510       6.66830015      -8.34460258     -11.98982239
Ag       6.71193625       1.18935214      12.78279638      -6.67597771       2.77376699       1.08233106
Ag       0.43106142      14.21717203       9.94626318      12.32759857       7.24798298      -7.37166882
Cu       1.07750967      15.84953290      18.01356773      -4.48183060      -0.34084451      -0.59255314
Cu      12.26022331       3.03824870      19.92169727      -1.89757562      -8.10550785      -0.84494281
Cu       8.54919208      16.57387685      13.19677536      -1.56894362       1.16044831       3.64310908
Cu       0.54175795      17.45936458       5.50500460       0.91662180      -0.50583231      -0.01801882
Cu      10.30080626       6.72508413       6.35685487      -2.79316545       1.97908568       2.55110502
Cu       2.46169191       1.84085773      11.18201358      -0.03637396       4.56547165       5.78072262
Cu      10.51407168      16.58877349      12.44039273       2.99866199       0.20169136      -1.61134171
Cu      12.31023077      10.89476658      14.33831906      14.12324333      10.79760742       0.59494209
Cu       1.31658886       0.97532988       7.52171522       0.27397373       1.43799615      -5.27644777
Cu      13.01406675      16.46455102       9.07948281      -4.28892136      -5.14137650       3.75107670
Cu       9.46977114       5.49787813      13.98118680     -11.39617348       7.72900486       2.36159301
Zn       1.60730236      12.59100755       7.77808003      -0.67523623      -0.67912734       0.31290990
Zn       4.03869150       3.42598888      11.33333352      -1.51432252       3.02464652      -4.79609203
Zn       3.75285732       1.51618250       9.85240841      16.56420898       0.96412796       1.33950043
Zn      13.42470212       6.93504185      20.49772498       1.09984827       8.48701382       5.41625738
Zn       2.12590890      11.19584809      10.59536071       9.84674358       7.41133308      -8.70034027
Zn       5.93762644      14.21333304       5.61160736       1.74768865     -14.59886932     -12.13905525
Zn      10.61346602       3.91556472      11.51964309      -2.91054678      -1.37220681      -5.04689026
Zn       5.73346647       1.24325499      18.66387998      -7.50346661      -7.32109642      -3.67020178
Zn       8.16833973       8.79511581       8.65690088      -0.28725097     -15.03984451       5.37699795
Zn       5.19328634      17.41292717       7.94891458      -2.78978372       7.64064026       3.62310314
Zn      11.14097504      11.86874152      15.56007539       5.06501389       7.59013081      12.62489414
Al       8.86405756      13.70807913      20.03614367      -4.09101057      -2.92675829       8.34883404
Al      14.28100773      15.97176212      14.09092058       4.58620644     -11.06443596      -5.19550276
Al       8.42744601       9.18714780      10.45568241       5.77826071       5.79788589       5.32970858
Al      13.37761267       8.36317014       5.95936777       3.02139354      -1.79244924      -8.66132355
Al       0.01237428       2.75169495      13.35653738       5.09310436       5.95780897      12.57001114
Al       2.74009938      15.25026490      16.79276459       1.42695427      -0.55469042      -3.17976999
Al       7.20045960      17.60890277      10.47167432      -0.53323102       3.82145023       2.20177984
Al       4.62435681       9.73688660      17.45331605       4.17000484      -2.27458858       0.94440436
Al       3.46677951       1.37131590      17.40824387       9.61082935     -10.72130775      -2.92934012
Al       2.88460330       4.08854915       8.60756071      -0.06461357       2.51951981       1.31530356
Al       9.13817883       0.29805927       8.09962509      -3.59839940      -1.36019075       3.16229725
Au       4.53685859       7.25854178      11.20164179     -15.70305824      -4.61536694     -12.36406517
Au       1.53527869       4.15926299      15.30430921       2.86234522      -8.05133438      -3.45294094
Au       4.15752560       5.37652673      16.22091870      -7.26555538       3.55808115      11.31777287
Au      13.04263650       0.04283363      12.44136118     -32.47802353     -20.07338715     -12.95856953
Au       0.28475496       6.73235310      10.48630932      -0.31389749       0.45386940      -0.68386447
Au      13.54012549       1.87895623      11.84965623      -2.29684591      10.09962082     -17.27017021
Au       7.39491767      10.03766013      17.72427367     -12.38208675       0.88596630      -7.34607553
Au       2.78164124       3.09510795      18.92912776     -10.40424919       9.28772163      12.44743824
Au       8.47536803      13.94001352       9.30454112      -0.88161939      -0.10596810       0.63030118
Au       2.39580461      10.17765934      18.78620929      -9.46540833      10.77485847       6.80833960
Au       8.48626650      16.46055659       5.82101121      -5.51267385     -10.76029396      -1.32567120
P        1.75430736       1.67927372      18.11930662      -8.43952560     -15.27897453       7.69640827
P       13.47045202       9.00298496       7.68973589       0.62095404       3.89844561       9.66764259
P        4.42669714      17.58873502      13.79875344       1.23174667      18.62726593       7.22200584
P        5.91351861      14.95865438      11.59309244      -7.70027542      -0.27570701      -1.18678117
P        6.07622823       9.49104975      15.09779247      -1.35929942       3.39027452      -0.79049700
P        0.99784121      10.33608158      11.58533492     -10.18481827      -8.98872375      11.02917290
P        7.19620716      11.10432762      12.75725612      -9.81646347      -8.18151951      14.53668976
P        1.72870091       7.58927381      16.67658705      -0.57789600       1.18137050      -2.00686359
P        5.34352702       2.19600722      11.82284251       0.28362504      -0.66852921      -2.67752934
P        9.42410266      12.46053784      18.74622120      -1.36211634      -5.21010590      -5.12034416
P        8.38399498       0.90657440      14.02577814       2.66830134       5.33450079       3.52386451
Hg      11.83575048       4.85730783       9.09685804       0.14270136       0.36131790      -0.13435851
Hg       4.51955284       5.75177576      18.19019441      -0.13165319       9.83607006      23.47828293
Hg      11.54996737      14.32865920      20.63915647       0.74792242      -0.23997819       0.75747490
Hg      10.93565929       4.20195041      13.76383101       3.18508983     -17.57101440      18.48483276
Hg       5.96508267      15.73013172       6.98728728      24.65921021       8.58456421      30.45160675
Hg       9.15301020       6.59092527      18.33171183      -0.58826399      -4.74487495      -4.05181074
Hg       5.91660584       8.18904164      12.49245997       3.85190201      15.40490913      22.11366463
Hg       5.25533794      13.82028760      19.50594062       4.53710079       4.46767902       6.60019112
Hg       4.49951666       3.24455417      17.55883551       9.43535805      -1.10091805     -15.03431129
Hg      13.55459213      12.61984944      10.77052229       6.55492115      -1.10010481       2.75728679
Hg       1.26721137      17.49943488      11.32657507      -9.77230072     -12.85041046      -8.39138031
Na       9.43702620       2.60955496       8.32640668       0.78181201       1.60361767       1.24103117
Na       8.98665228       0.26827702      17.28424126       0.94819307      -2.49376249      -1.53121459
Na       8.77765680       9.06744243      16.26689655       0.78521097      -0.94607532      -2.56834054
Na      11.19601621      16.86360150       7.72583009       1.54642284       4.23007822      -2.04370356
Na       8.11654274       7.66065480      12.81580667       2.66888070      -0.79778147       1.83431959
Na      13.63013486       7.18827825      18.38323518       0.17792939       1.59237540      -3.50538611
Na       9.73308857       4.50831595       6.73207613      -3.47395492      -2.62881899       4.78298759
Na      10.34431951       7.73724043      13.95389046      -0.39571291      -2.00945711      -3.71979809
Na       7.20648389       4.41010051       8.16914129       0.82098770       0.86060625       2.26665664
Na       9.85949567      17.34319797      14.79678098       6.35900402       0.39408717       4.33466482
Na       8.73007045       5.64296079      20.46583729      -0.25575429      -0.76172507       3.63093710
Mg       6.34799408       2.11786033       8.21766600      -0.34978491      -2.08386731       1.16886902
Mg       5.20640270      15.26364208       9.06000084      -0.52322352      -2.08251595       4.86316299
Mg      12.31121759       9.54995637      16.32582911      10.35819244       8.29211426       2.59371662
Mg       1.59765275       8.04312984      18.56952350       0.05126161      -0.04628427       7.79792118
Mg       2.25763778       4.64502919      17.65710910      -5.17121696       6.79697418      -2.85115528
Mg       3.69608881       5.36184070      11.96291086       4.30903006       2.14133787       2.09924698
Mg       3.29206644      13.53370024      18.66826089      -6.22561741      -0.04657529      -2.03860259
Mg       2.95704328       8.81885583       8.84681249      -3.93409204       3.78487062      11.43057060
Mg      12.85283716       4.99791903      17.96466190      -1.77842784      -2.28421593      -4.69813538
Mg       3.10608143      13.12183545       5.44800234      -0.20806870      -0.30620790       0.28159249
Mg       2.22413467       8.70406814       5.00000000      -0.12767231       0.42008740       1.78861082
Fe       7.52773964       1.90796603      17.92352357       5.71489429       0.05941468      -4.84310818
Fe       5.91456911       0.68099085       5.14340755       1.36357796      -0.67364943      -0.53471178
Fe       7.60254562       6.33654728      10.93528413       2.54271126      -5.91658306       1.62097549
Fe      11.38584979      15.90106804      17.08287092      -4.22258759      -5.03220081      -1.63122630
Fe      11.52817086       8.04679411       5.05437669      -2.61188412       0.95536953      -2.18186498
Fe      10.59151561      11.15521016       9.27272800       0.11967807       0.04283275      -0.51870781
Fe      14.07904096      11.56905642      18.45098008       1.97898436      -0.94132686       0.44087487
Fe       2.21464481       3.34650349      12.51430416      -0.08079191      -2.57462573       6.58293343
Fe       3.99044935       2.06615881      20.17813771       6.26796246      -7.19729567       8.84283638
Fe       7.47607775       6.88223879       8.94975638       0.16825579      -2.81785107      -1.14131641
Fe       3.63529410       9.92212277      15.55723502       1.38846874      -6.88215399      -3.15230346
Mn      10.59809583      14.59261486      14.23745434       4.83996296      -4.27250671      -0.71318507
Mn      12.31295100      17.36222468      18.11898429       2.86062813       4.59983206       2.86587191
Mn       9.58382919       7.49291996      10.51958091       3.11931872      -4.11037350      -2.74164248
Mn       1.64041720      17.21398433      13.52612007       1.95791411      -7.94120502      11.86904907
Mn      13.05225193      16.10346220      15.54292986      -6.55265617      -4.66411018       6.63536263
Mn       3.77492480      11.31010975      20.09332326       0.91947329       2.75151873       3.84630108
Mn      13.64349812      14.72704641       5.28986074       1.47347295      -1.88966775      -0.42072645
Mn       4.14850699       1.58571487       6.46688713      -0.83086747      -1.15502703      -2.32403088
Mn       7.55662848      15.04869918      18.64131621      -4.86516809       0.41452083      -4.46246672
Mn       4.96179145       9.34472952       6.67821150      -2.52924061      -2.10547805      -1.10630035
Mn      10.77115553       1.73397984       5.47232916       3.84902525       4.19214296      -0.90836495
Co      14.00380044       4.63951913      16.24454259      -5.03199720       3.43926525      -1.34685123
Co       5.24127881      11.93333263      12.95306475      -3.09370565      -0.43597743      -0.43551135
Co       6.00332490       3.64434293      13.23969792      -0.50555521       2.03840804       0.27909642
Co      12.49822220       4.41450083      12.57492249       0.12566212       7.26534557       0.33406729
Co       3.13727389       2.13652993       8.11117986       0.02196574       2.79508495      -2.85945463
Co       6.98974002       2.03645427      19.88542421       1.82181716       0.70554268       8.09751320
Co       3.39460575       5.12476378      14.46439644      -7.04975414      -3.52888560     -19.46760178
Co       0.38089796      10.74898394      16.07430380     -13.66356468      -1.79836905       2.50802279
Co       3.30973977       5.69838009       7.12746627       0.61336195       2.77045059      -0.37072223
Co       9.51961557       7.91230586      20.50105161      -0.33890980       1.67971194       0.33593136
Co       8.43438624       0.63900762      11.90042978      10.33985424       0.47008574      -4.21939564
La       6.71233487       4.38219809      18.45289885       5.68967915       0.58381081       0.20134771
La       6.74673022       7.46928806      18.31152306      -3.61731100      -0.50538003       0.65102404
La       5.51355356       3.72942912       5.97667436      -1.25822091       1.27869940      -1.98313165
La       5.56710696      11.99560679      17.79235704       3.12882829       0.60631812      -1.32698464
La       6.13955704      10.11539743      20.10282456       0.27032739      -0.03735581       4.49628401
La       6.49367120       7.09684072      15.31496700       1.69784808      -5.15932131      -1.16145658
La      11.65531960      12.06139307      18.08318606       3.33068395       0.90953207       1.57419372
La      10.82136066       8.48711996      18.22513061       1.26968801       4.17385674       6.32667160
La       6.64958553      13.13944675      14.62795188       0.12261665       2.97676015       0.98931271
La      12.30322750      17.01199093       5.22164956      -0.67687458       2.68022490      -0.36206895
La       6.71015599       6.56896974       6.39941359      -0.81915087      -0.50728965      -1.19275427
Cl      12.06944142       9.41682324      13.47186298       3.63252687     -11.62129307     -10.38603210
Cl      10.80042962       5.05899779       5.15818307       3.79453945       0.16965240      -6.62796783
Cl      12.87661929      14.59737670      10.79982745      -6.86377716       8.95326614       3.80677938
Cl      10.00613271      12.10329555      14.17488475       0.43426213       4.95653009      -9.58570576
Cl       2.02574541      10.99212418      15.79641006       8.21481323       4.71550035      -2.20061398
Cl      11.13719153       8.25880034      15.85128785      -4.48653746     -11.35534477      -1.27410364
Cl      13.67776962       0.16387242      14.66342686      -4.43003893      14.35741043      -2.66944194
Cl       2.77994539       0.41802892      12.47687051      16.16987228       6.64327717       3.23518920
Cl       2.30646976       7.65562838      13.96931834       5.13513374       9.98646736      -8.93351555
Cl       0.18311075       5.19868292      19.85002549      20.55318832      -1.00855780      -1.32243955
Cl       8.64425402      10.26577575       7.96174772      13.78185654      17.58195877      -0.74428773
