H  C  O  Ag
 1.0000000000000000
    11.5107999999999997    0.0000000000000000    0.0000000000000000
     0.0000000200000000   11.5106999999999999    0.0000000000000000
     0.0000000400000000    0.0000000400000000   24.1045000000000016
 H   C   O   Ag 
   8   4  10  80
Selective dynamics
Cartesian
  0.0613820700000000  5.1892407699999996 14.5570134899999992   T   T   T
 11.3987140199999999  3.3393854799999998 14.5163204399999994   T   T   T
  9.1005808199999993  5.4398970699999998 14.7328101700000005   T   T   T
  8.8917758599999992  3.5861650599999999 14.6964179200000000   T   T   T
  3.4337823200000002  5.3634936099999999 15.5824874199999996   T   T   T
  4.6079225900000003  6.5159085599999997 14.7376512000000002   T   T   T
  3.0095418500000002  3.8159327099999998 14.4503792000000004   T   T   T
  4.7837222199999996  4.0916784300000000 14.9418611400000003   T   T   T
 10.9107577300000003  4.3183986900000004 14.5138618000000008   T   T   T
  9.5524098899999998  4.4532451899999996 14.6048312599999992   T   T   T
  3.6751658900000002  5.9512767899999997 14.5193747999999996   T   T   T
  3.8917271599999999  4.4710240800000003 14.4284582599999993   T   T   T
  4.3220720300000002  4.2300117100000003 10.0890826699999998   T   T   T
 10.0310624700000002  4.2126179300000004 10.2589826300000002   T   T   T
 10.0389746500000001  0.2403441000000000 10.9079685000000008   T   T   T
  1.4255899700000001  5.9322833299999997 10.9304341500000000   T   T   T
  7.0737695799999996  5.8727963000000001 11.0042843799999996   T   T   T
  4.3717853699999996  0.4009627300000000 10.9267779899999997   T   T   T
  9.9878049799999999  8.1317261599999995 12.8796689700000009   T   T   T
  2.6528009199999998  6.5771026099999998 14.0408406400000008   T   T   T
  1.4126991799999999  2.3573967300000001 13.0129192299999996   T   T   T
  7.2554965700000000  2.3656134400000002 13.1505649299999998   T   T   T
  1.4372315300000000  1.4390093100000001  2.9782067699999999   F   F   F
  7.1926326700000001  1.4390099999999999  2.9782077800000000   F   F   F
 10.0704690899999996 10.0721060799999993  2.9782794500000001   F   F   F
  4.3150682400000004 10.0721075300000003  2.9782807600000001   F   F   F
  1.4369260300000000  4.3165412900000000  2.9783954100000001   F   F   F
  7.1923271399999997  4.3165412900000000  2.9783968800000000   F   F   F
  1.4371781200000000 10.0721559999999997  2.9783978499999999   F   F   F
  7.1925799100000001 10.0721566300000003  2.9783991400000001   F   F   F
  4.3147224800000004  4.3165381399999996  2.9784581200000000   F   F   F
 10.0701220700000000  4.3165376799999997  2.9784586399999999   F   F   F
 10.0703657700000004  1.4389405900000001  2.9784591400000000   F   F   F
  4.3149658100000003  1.4389422100000000  2.9784593300000002   F   F   F
 10.0699146299999995  7.1943336499999999  2.9784616300000000   F   F   F
  1.4367650500000000  7.1943341099999998  2.9784619900000000   F   F   F
  4.3145140399999997  7.1943340100000004  2.9784631199999998   F   F   F
  7.1921669399999999  7.1943340100000004  2.9784634400000001   F   F   F
  2.8777569299999999  0.0000305400000000  5.0246619800000003   F   F   F
  8.6331592399999995  0.0000306700000000  5.0246634099999996   F   F   F
  2.8771286300000001  8.6330925999999995  5.0248840599999998   F   F   F
  8.6325319999999994  8.6330933600000002  5.0248852599999996   F   F   F
 11.5104801400000003  2.8777829200000000  5.0249024499999999   F   F   F
  5.7550809000000003  2.8777827899999999  5.0249028600000001   F   F   F
  2.8769921799999998  5.7554494500000004  5.0249191900000003   F   F   F
  8.6323951599999997  5.7554505300000001  5.0249206400000004   F   F   F
  5.7554167600000001  0.0000009900000000  5.0249582699999999   F   F   F
  0.0000157600000000  0.0000001600000000  5.0249593700000004   F   F   F
  2.8770273300000002  2.8778523100000002  5.0249742099999999   F   F   F
  8.6324292299999996  2.8778520699999999  5.0249757500000003   F   F   F
  5.7547919800000003  8.6329927000000009  5.0250139100000002   F   F   F
 11.5101911500000007  8.6329919900000007  5.0250165600000001   F   F   F
  5.7546698999999997  5.7555369299999999  5.0250362900000001   F   F   F
 11.5100693799999991  5.7555377200000004  5.0250375500000004   F   F   F
  4.2991384400000001  7.2046349899999997  7.0662106400000004   T   T   T
 10.0670897000000004  4.2987711900000001  7.0628517700000000   T   T   T
  7.1997735599999997 10.0621571200000002  7.0592185000000001   T   T   T
  1.4409381900000000 10.0559663799999992  7.0899288900000004   T   T   T
  7.2032617099999996  4.2835027800000001  7.1032161299999999   T   T   T
  1.4299095300000000  4.3041011400000002  7.1127745800000000   T   T   T
  4.3088868400000004  1.4416097900000000  7.1011460599999996   T   T   T
 10.0776171300000001 10.0519988399999995  7.0885898799999998   T   T   T
  7.1940853200000001  1.4587791900000000  7.1095300200000002   T   T   T
  1.4326395500000000  1.4663333500000000  7.1111440899999998   T   T   T
  4.3055728300000000  4.3017839999999996  7.0420879200000002   T   T   T
  7.2097852900000001  7.1672076200000001  7.0868596400000001   T   T   T
  1.4309455900000001  7.1842613699999998  7.1070478599999998   T   T   T
  4.2977353999999997 10.0856317499999992  7.0657016099999996   T   T   T
 10.0674757400000008  1.4402965299999999  7.1024719999999997   T   T   T
 10.0697287600000003  7.1873198100000000  7.1017744499999997   T   T   T
  2.8962817500000000  5.8086068199999996  9.1157483700000004   T   T   T
  2.8784167799999998  8.6283210599999993  9.1798262200000007   T   T   T
  8.6331008100000002  5.7621638900000001  9.1449014799999997   T   T   T
 10.0158693299999992  9.8782703299999994 11.8327332799999994   T   T   T
  5.7998823699999997 11.4853267900000002  9.1079942200000001   T   T   T
  5.8083921099999998  2.7945418900000001  9.2072359000000006   T   T   T
 11.4737384099999993  5.7685505800000003  9.1083829600000001   T   T   T
  2.8302645300000000 11.4967813999999997  9.1301099699999995   T   T   T
  5.7419483199999997  5.7710515600000001  9.0503346600000008   T   T   T
  2.8015770299999998  2.8141377599999999  9.2089368799999995   T   T   T
  0.0202548300000000  2.8207427599999999  9.2339637900000007   T   T   T
  8.5865410400000002  2.7901967600000002  9.2348203000000009   T   T   T
 11.4973315300000003  8.6163616199999993  9.1899016800000002   T   T   T
  5.7454899599999996  8.6452106099999995  9.0552418899999996   T   T   T
  8.5699710800000002 11.4617113800000006  9.0940349699999992   T   T   T
  8.6533871300000005  8.5926890700000005  9.1758834700000005   T   T   T
  7.1604800700000002  9.9038787399999997 11.1503480699999997   T   T   T
  1.4081684100000000 10.0150985000000006 11.1785873799999997   T   T   T
  0.0453640400000000 11.4906018000000003  9.0895570800000005   T   T   T
  4.2989667799999998  9.7522944299999992 11.4092439399999996   T   T   T
  8.5005258900000005  7.1440530999999998 11.8447388000000000   T   T   T
  0.0368389100000000  1.3030555300000000 11.8871896100000001   T   T   T
  8.6123103899999993  1.3559042600000000 11.9572681599999999   T   T   T
  1.4423912500000000  4.1067992499999999 11.8926496200000003   T   T   T
  7.1329173900000002  4.1063216100000002 12.0561396399999996   T   T   T
 11.4524557100000006  7.1490615699999998 11.7860528900000006   T   T   T
  2.8217722599999999  7.4978341200000003 11.8378524100000000   T   T   T
  5.7941218299999999  1.4379203199999999 12.0174333499999992   T   T   T
  2.8743275900000000  1.4096903999999999 11.9210514300000003   T   T   T
  5.5392707600000000  7.3643571200000002 11.5245503399999993   T   T   T
  4.2900436300000004  4.1510727200000002 12.2329017600000007   T   T   T
 10.0552600900000009  4.3452936299999996 12.3548973100000001   T   T   T
